Al Fe Al                                
   1.00000000000000     
    14.3189123190275875    0.0000000000000000    0.0000000000000000
     7.1594561595137938   12.4005418228398376    0.0000000000000000
     0.0000000000000000    0.0000000000000000   39.3530743608719362
   Al   Fe   Al
   111     2    12
Selective dynamics
Direct
  0.9333333333333300  0.1333333333333329  0.4573975551423999   F   F   F
  0.1333333333333329  0.1333333333333329  0.4573975551423999   F   F   F
  0.3333333333333357  0.1333333333333329  0.4573975551423999   F   F   F
  0.5333333333333314  0.1333333333333329  0.4573975551423999   F   F   F
  0.7333333333333343  0.1333333333333329  0.4573975551423999   F   F   F
  0.9333333333333300  0.3333333333333357  0.4573975551423999   F   F   F
  0.1333333333333329  0.3333333333333357  0.4573975551423999   F   F   F
  0.3333333333333357  0.3333333333333357  0.4573975551423999   F   F   F
  0.5333333333333314  0.3333333333333357  0.4573975551423999   F   F   F
  0.7333333333333343  0.3333333333333357  0.4573975551423999   F   F   F
  0.9333333333333300  0.5333333333333314  0.4573975551423999   F   F   F
  0.1333333333333329  0.5333333333333314  0.4573975551423999   F   F   F
  0.3333333333333357  0.5333333333333314  0.4573975551423999   F   F   F
  0.5333333333333314  0.5333333333333314  0.4573975551423999   F   F   F
  0.7333333333333343  0.5333333333333314  0.4573975551423999   F   F   F
  0.9333333333333300  0.7333333333333343  0.4573975551423999   F   F   F
  0.1333333333333329  0.7333333333333343  0.4573975551423999   F   F   F
  0.3333333333333357  0.7333333333333343  0.4573975551423999   F   F   F
  0.5333333333333314  0.7333333333333343  0.4573975551423999   F   F   F
  0.7333333333333343  0.7333333333333343  0.4573975551423999   F   F   F
  0.9333333333333300  0.9333333333333371  0.4573975551423999   F   F   F
  0.1333333333333329  0.9333333333333371  0.4573975551423999   F   F   F
  0.3333333333333357  0.9333333333333371  0.4573975551423999   F   F   F
  0.5333333333333314  0.9333333333333371  0.4573975551423999   F   F   F
  0.7333333333333343  0.9333333333333371  0.4573975551423999   F   F   F
  0.0000000000000000  0.0000000000000000  0.5168152404997386   F   F   F
  0.2000000000000028  0.0000000000000000  0.5168152404997386   F   F   F
  0.3999999999999986  0.0000000000000000  0.5168152404997386   F   F   F
  0.6000000000000014  0.0000000000000000  0.5168152404997386   F   F   F
  0.7999999999999972  0.0000000000000000  0.5168152404997386   F   F   F
  0.0000000000000000  0.2000000000000028  0.5168152404997386   F   F   F
  0.2000000000000028  0.2000000000000028  0.5168152404997386   F   F   F
  0.3999999999999986  0.2000000000000028  0.5168152404997386   F   F   F
  0.6000000000000014  0.2000000000000028  0.5168152404997386   F   F   F
  0.7999999999999972  0.2000000000000028  0.5168152404997386   F   F   F
  0.0000000000000000  0.3999999999999986  0.5168152404997386   F   F   F
  0.2000000000000028  0.3999999999999986  0.5168152404997386   F   F   F
  0.3999999999999986  0.3999999999999986  0.5168152404997386   F   F   F
  0.6000000000000014  0.3999999999999986  0.5168152404997386   F   F   F
  0.7999999999999972  0.3999999999999986  0.5168152404997386   F   F   F
  0.0000000000000000  0.6000000000000014  0.5168152404997386   F   F   F
  0.2000000000000028  0.6000000000000014  0.5168152404997386   F   F   F
  0.3999999999999986  0.6000000000000014  0.5168152404997386   F   F   F
  0.6000000000000014  0.6000000000000014  0.5168152404997386   F   F   F
  0.7999999999999972  0.6000000000000014  0.5168152404997386   F   F   F
  0.0000000000000000  0.7999999999999972  0.5168152404997386   F   F   F
  0.2000000000000028  0.7999999999999972  0.5168152404997386   F   F   F
  0.3999999999999986  0.7999999999999972  0.5168152404997386   F   F   F
  0.6000000000000014  0.7999999999999972  0.5168152404997386   F   F   F
  0.7999999999999972  0.7999999999999972  0.5168152404997386   F   F   F
  0.0666666666666700  0.0666666666666700  0.5762329258570702   F   F   F
  0.2666666666666657  0.0666666666666700  0.5762329258570702   F   F   F
  0.4666666666666686  0.0666666666666700  0.5762329258570702   F   F   F
  0.6666666666666643  0.0666666666666700  0.5762329258570702   F   F   F
  0.8666666666666671  0.0666666666666700  0.5762329258570702   F   F   F
  0.0666666666666700  0.2666666666666657  0.5762329258570702   F   F   F
  0.2666666666666657  0.2666666666666657  0.5762329258570702   F   F   F
  0.4666666666666686  0.2666666666666657  0.5762329258570702   F   F   F
  0.6666666666666643  0.2666666666666657  0.5762329258570702   F   F   F
  0.8666666666666671  0.2666666666666657  0.5762329258570702   F   F   F
  0.0666666666666700  0.4666666666666686  0.5762329258570702   F   F   F
  0.2666666666666657  0.4666666666666686  0.5762329258570702   F   F   F
  0.4666666666666686  0.4666666666666686  0.5762329258570702   F   F   F
  0.6666666666666643  0.4666666666666686  0.5762329258570702   F   F   F
  0.8666666666666671  0.4666666666666686  0.5762329258570702   F   F   F
  0.0666666666666700  0.6666666666666643  0.5762329258570702   F   F   F
  0.2666666666666657  0.6666666666666643  0.5762329258570702   F   F   F
  0.4666666666666686  0.6666666666666643  0.5762329258570702   F   F   F
  0.6666666666666643  0.6666666666666643  0.5762329258570702   F   F   F
  0.8666666666666671  0.6666666666666643  0.5762329258570702   F   F   F
  0.0666666666666700  0.8666666666666671  0.5762329258570702   F   F   F
  0.2666666666666657  0.8666666666666671  0.5762329258570702   F   F   F
  0.4666666666666686  0.8666666666666671  0.5762329258570702   F   F   F
  0.6666666666666643  0.8666666666666671  0.5762329258570702   F   F   F
  0.8666666666666671  0.8666666666666671  0.5762329258570702   F   F   F
  0.9331444598407939  0.1337112017213298  0.6354305229639672   T   T   T
  0.1354078419569832  0.1329917752648155  0.6355913717892382   T   T   T
  0.3351483628094458  0.1349372882131942  0.6350813193858723   T   T   T
  0.5299142266212996  0.1349374565467794  0.6350801859708809   T   T   T
  0.7316026747484683  0.1329911928396004  0.6355913484219264   T   T   T
  0.9336392101333236  0.3334650039472064  0.6353625306429811   T   T   T
  0.1331775744648734  0.3332354730420404  0.6341472115286912   T   T   T
  0.3290905505477479  0.3418209638217678  0.6363040337675456   T   T   T
  0.5335776074159730  0.3332399145833887  0.6341491685369474   T   T   T
  0.7328983711860356  0.3334647693696788  0.6353626232272560   T   T   T
  0.9295265214559036  0.5349143302331166  0.6345976334481593   T   T   T
  0.1303569347426429  0.5312566503982111  0.6341253788284891   T   T   T
  0.3383894006542897  0.5312525093420281  0.6341238257307367   T   T   T
  0.5355583034860081  0.5349134957608371  0.6345973010126168   T   T   T
  0.7329991244569823  0.5340013674585791  0.6355066819920225   T   T   T
  0.9334859770336033  0.7315120985888619  0.6359447215412916   T   T   T
  0.1374575742274136  0.7250805571589135  0.6364459871222851   T   T   T
  0.3350027384399598  0.7315139643786410  0.6359446709772987   T   T   T
  0.5332885894599463  0.7349654416998319  0.6358525798508210   T   T   T
  0.7317426530118240  0.7349645794639905  0.6358528071725993   T   T   T
  0.9354127431161351  0.9302516665043321  0.6357573853098604   T   T   T
  0.1343377124053128  0.9302486550473750  0.6357575008167961   T   T   T
  0.3335381958547005  0.9331946727229329  0.6358159944533691   T   T   T
  0.5328882650454065  0.9342247059237899  0.6359282425664999   T   T   T
  0.7332706722535998  0.9331952924113744  0.6358153104916728   T   T   T
  0.0006706066939527 -0.0013400732353554  0.6949496945499832   T   T   T
  0.2009155489566571 -0.0002614551964304  0.6951671921184340   T   T   T
  0.3971100782496308  0.0088393574164966  0.6949385968644229   T   T   T
  0.5940508373979950  0.0088394032549021  0.6949383426991875   T   T   T
  0.7993453898581044 -0.0002584075934264  0.6951677074514888   T   T   T
  0.0017403234741444  0.2006168609165601  0.6948878593404466   T   T   T
  0.2020055601620949  0.2099098201781112  0.6939404960150625   T   T   T
  0.3811607031774250  0.2376694162589518  0.6956557811472879   T   T   T
  0.5880869083298277  0.2099067133171313  0.6939402994400585   T   T   T
  0.7976429634478177  0.2006178372036633  0.6948879543255431   T   T   T
  0.0050189544907844  0.4003252694897378  0.6935925639340169   T   T   T
  0.1867375533875675  0.4008482614536991  0.6838592151912982   T   T   T
  0.4124189503185502  0.4008457487900688  0.6838570357343605   T   T   T
  0.5946578655424779  0.4003229670437767  0.6935914680177673   T   T   T
  0.8001034185729514  0.3997910818340102  0.6950972637553069   T   T   T
  0.0104300925103716  0.5906350939458110  0.6941642046846742   T   T   T
  0.2198412210408031  0.5603095836199101  0.6931360717687474   T   T   T
  0.3989330954709250  0.5906391088731022  0.6941641663415413   T   T   T
  0.5985587201573956  0.5986968469120779  0.6951726930302904   T   T   T
  0.8027413988414364  0.5986968862353527  0.6951727947247299   T   T   T
  0.0044297644730617  0.7929015983902562  0.6952707153170780   T   T   T
  0.2026686592531541  0.7929005832094729  0.6952709971246185   T   T   T
  0.3998939200110422  0.8003509031113261  0.6959773722674906   T   T   T
  0.5989060938266179  0.8021881200836188  0.6965193263494864   T   T   T
  0.7997529334128051  0.8003547316581626  0.6959769221758879   T   T   T
 
  0.00000000E+00  0.00000000E+00  0.00000000E+00
  0.00000000E+00  0.00000000E+00  0.00000000E+00
  0.00000000E+00  0.00000000E+00  0.00000000E+00
  0.00000000E+00  0.00000000E+00  0.00000000E+00
  0.00000000E+00  0.00000000E+00  0.00000000E+00
  0.00000000E+00  0.00000000E+00  0.00000000E+00
  0.00000000E+00  0.00000000E+00  0.00000000E+00
  0.00000000E+00  0.00000000E+00  0.00000000E+00
  0.00000000E+00  0.00000000E+00  0.00000000E+00
  0.00000000E+00  0.00000000E+00  0.00000000E+00
  0.00000000E+00  0.00000000E+00  0.00000000E+00
  0.00000000E+00  0.00000000E+00  0.00000000E+00
  0.00000000E+00  0.00000000E+00  0.00000000E+00
  0.00000000E+00  0.00000000E+00  0.00000000E+00
  0.00000000E+00  0.00000000E+00  0.00000000E+00
  0.00000000E+00  0.00000000E+00  0.00000000E+00
  0.00000000E+00  0.00000000E+00  0.00000000E+00
  0.00000000E+00  0.00000000E+00  0.00000000E+00
  0.00000000E+00  0.00000000E+00  0.00000000E+00
  0.00000000E+00  0.00000000E+00  0.00000000E+00
  0.00000000E+00  0.00000000E+00  0.00000000E+00
  0.00000000E+00  0.00000000E+00  0.00000000E+00
  0.00000000E+00  0.00000000E+00  0.00000000E+00
  0.00000000E+00  0.00000000E+00  0.00000000E+00
  0.00000000E+00  0.00000000E+00  0.00000000E+00
  0.00000000E+00  0.00000000E+00  0.00000000E+00
  0.00000000E+00  0.00000000E+00  0.00000000E+00
  0.00000000E+00  0.00000000E+00  0.00000000E+00
  0.00000000E+00  0.00000000E+00  0.00000000E+00
  0.00000000E+00  0.00000000E+00  0.00000000E+00
  0.00000000E+00  0.00000000E+00  0.00000000E+00
  0.00000000E+00  0.00000000E+00  0.00000000E+00
  0.00000000E+00  0.00000000E+00  0.00000000E+00
  0.00000000E+00  0.00000000E+00  0.00000000E+00
  0.00000000E+00  0.00000000E+00  0.00000000E+00
  0.00000000E+00  0.00000000E+00  0.00000000E+00
  0.00000000E+00  0.00000000E+00  0.00000000E+00
  0.00000000E+00  0.00000000E+00  0.00000000E+00
  0.00000000E+00  0.00000000E+00  0.00000000E+00
  0.00000000E+00  0.00000000E+00  0.00000000E+00
  0.00000000E+00  0.00000000E+00  0.00000000E+00
  0.00000000E+00  0.00000000E+00  0.00000000E+00
  0.00000000E+00  0.00000000E+00  0.00000000E+00
  0.00000000E+00  0.00000000E+00  0.00000000E+00
  0.00000000E+00  0.00000000E+00  0.00000000E+00
  0.00000000E+00  0.00000000E+00  0.00000000E+00
  0.00000000E+00  0.00000000E+00  0.00000000E+00
  0.00000000E+00  0.00000000E+00  0.00000000E+00
  0.00000000E+00  0.00000000E+00  0.00000000E+00
  0.00000000E+00  0.00000000E+00  0.00000000E+00
  0.00000000E+00  0.00000000E+00  0.00000000E+00
  0.00000000E+00  0.00000000E+00  0.00000000E+00
  0.00000000E+00  0.00000000E+00  0.00000000E+00
  0.00000000E+00  0.00000000E+00  0.00000000E+00
  0.00000000E+00  0.00000000E+00  0.00000000E+00
  0.00000000E+00  0.00000000E+00  0.00000000E+00
  0.00000000E+00  0.00000000E+00  0.00000000E+00
  0.00000000E+00  0.00000000E+00  0.00000000E+00
  0.00000000E+00  0.00000000E+00  0.00000000E+00
  0.00000000E+00  0.00000000E+00  0.00000000E+00
  0.00000000E+00  0.00000000E+00  0.00000000E+00
  0.00000000E+00  0.00000000E+00  0.00000000E+00
  0.00000000E+00  0.00000000E+00  0.00000000E+00
  0.00000000E+00  0.00000000E+00  0.00000000E+00
  0.00000000E+00  0.00000000E+00  0.00000000E+00
  0.00000000E+00  0.00000000E+00  0.00000000E+00
  0.00000000E+00  0.00000000E+00  0.00000000E+00
  0.00000000E+00  0.00000000E+00  0.00000000E+00
  0.00000000E+00  0.00000000E+00  0.00000000E+00
  0.00000000E+00  0.00000000E+00  0.00000000E+00
  0.00000000E+00  0.00000000E+00  0.00000000E+00
  0.00000000E+00  0.00000000E+00  0.00000000E+00
  0.00000000E+00  0.00000000E+00  0.00000000E+00
  0.00000000E+00  0.00000000E+00  0.00000000E+00
  0.00000000E+00  0.00000000E+00  0.00000000E+00
  0.00000000E+00  0.00000000E+00  0.00000000E+00
  0.00000000E+00  0.00000000E+00  0.00000000E+00
  0.00000000E+00  0.00000000E+00  0.00000000E+00
  0.00000000E+00  0.00000000E+00  0.00000000E+00
  0.00000000E+00  0.00000000E+00  0.00000000E+00
  0.00000000E+00  0.00000000E+00  0.00000000E+00
  0.00000000E+00  0.00000000E+00  0.00000000E+00
  0.00000000E+00  0.00000000E+00  0.00000000E+00
  0.00000000E+00  0.00000000E+00  0.00000000E+00
  0.00000000E+00  0.00000000E+00  0.00000000E+00
  0.00000000E+00  0.00000000E+00  0.00000000E+00
  0.00000000E+00  0.00000000E+00  0.00000000E+00
  0.00000000E+00  0.00000000E+00  0.00000000E+00
  0.00000000E+00  0.00000000E+00  0.00000000E+00
  0.00000000E+00  0.00000000E+00  0.00000000E+00
  0.00000000E+00  0.00000000E+00  0.00000000E+00
  0.00000000E+00  0.00000000E+00  0.00000000E+00
  0.00000000E+00  0.00000000E+00  0.00000000E+00
  0.00000000E+00  0.00000000E+00  0.00000000E+00
  0.00000000E+00  0.00000000E+00  0.00000000E+00
  0.00000000E+00  0.00000000E+00  0.00000000E+00
  0.00000000E+00  0.00000000E+00  0.00000000E+00
  0.00000000E+00  0.00000000E+00  0.00000000E+00
  0.00000000E+00  0.00000000E+00  0.00000000E+00
  0.00000000E+00  0.00000000E+00  0.00000000E+00
  0.00000000E+00  0.00000000E+00  0.00000000E+00
  0.00000000E+00  0.00000000E+00  0.00000000E+00
  0.00000000E+00  0.00000000E+00  0.00000000E+00
  0.00000000E+00  0.00000000E+00  0.00000000E+00
  0.00000000E+00  0.00000000E+00  0.00000000E+00
  0.00000000E+00  0.00000000E+00  0.00000000E+00
  0.00000000E+00  0.00000000E+00  0.00000000E+00
  0.00000000E+00  0.00000000E+00  0.00000000E+00
  0.00000000E+00  0.00000000E+00  0.00000000E+00
  0.00000000E+00  0.00000000E+00  0.00000000E+00
  0.00000000E+00  0.00000000E+00  0.00000000E+00
  0.00000000E+00  0.00000000E+00  0.00000000E+00
  0.00000000E+00  0.00000000E+00  0.00000000E+00
  0.00000000E+00  0.00000000E+00  0.00000000E+00
  0.00000000E+00  0.00000000E+00  0.00000000E+00
  0.00000000E+00  0.00000000E+00  0.00000000E+00
  0.00000000E+00  0.00000000E+00  0.00000000E+00
  0.00000000E+00  0.00000000E+00  0.00000000E+00
  0.00000000E+00  0.00000000E+00  0.00000000E+00
  0.00000000E+00  0.00000000E+00  0.00000000E+00
  0.00000000E+00  0.00000000E+00  0.00000000E+00
  0.00000000E+00  0.00000000E+00  0.00000000E+00
  0.00000000E+00  0.00000000E+00  0.00000000E+00
  0.00000000E+00  0.00000000E+00  0.00000000E+00
  0.00000000E+00  0.00000000E+00  0.00000000E+00
