Al Fe Al  C  H  O  C                    
   1.00000000000000     
    14.3189123190275875    0.0000000000000000    0.0000000000000000
     7.1594561595137938   12.4005418228398376    0.0000000000000000
   0.0000000000   0.0000000000   34.0517534965
   Al   Fe   Al   C    H    O    C 
   112     1    12     2     5     1     1
Selective dynamics
Direct
0.9333333333333300   0.1333333333333329   0.2936706329   F   F   F
0.1333333333333329   0.1333333333333329   0.2936706329   F   F   F
0.3333333333333357   0.1333333333333329   0.2936706329   F   F   F
0.5333333333333314   0.1333333333333329   0.2936706329   F   F   F
0.7333333333333343   0.1333333333333329   0.2936706329   F   F   F
0.9333333333333300   0.3333333333333357   0.2936706329   F   F   F
0.1333333333333329   0.3333333333333357   0.2936706329   F   F   F
0.3333333333333357   0.3333333333333357   0.2936706329   F   F   F
0.5333333333333314   0.3333333333333357   0.2936706329   F   F   F
0.7333333333333343   0.3333333333333357   0.2936706329   F   F   F
0.9333333333333300   0.5333333333333314   0.2936706329   F   F   F
0.1333333333333329   0.5333333333333314   0.2936706329   F   F   F
0.3333333333333357   0.5333333333333314   0.2936706329   F   F   F
0.5333333333333314   0.5333333333333314   0.2936706329   F   F   F
0.7333333333333343   0.5333333333333314   0.2936706329   F   F   F
0.9333333333333300   0.7333333333333343   0.2936706329   F   F   F
0.1333333333333329   0.7333333333333343   0.2936706329   F   F   F
0.3333333333333357   0.7333333333333343   0.2936706329   F   F   F
0.5333333333333314   0.7333333333333343   0.2936706329   F   F   F
0.7333333333333343   0.7333333333333343   0.2936706329   F   F   F
0.9333333333333300   0.9333333333333371   0.2936706329   F   F   F
0.1333333333333329   0.9333333333333371   0.2936706329   F   F   F
0.3333333333333357   0.9333333333333371   0.2936706329   F   F   F
0.5333333333333314   0.9333333333333371   0.2936706329   F   F   F
0.7333333333333343   0.9333333333333371   0.2936706329   F   F   F
0.0000000000000000   0.0000000000000000   0.3623387145   F   F   F
0.2000000000000028   0.0000000000000000   0.3623387145   F   F   F
0.3999999999999986   0.0000000000000000   0.3623387145   F   F   F
0.6000000000000014   0.0000000000000000   0.3623387145   F   F   F
0.7999999999999972   0.0000000000000000   0.3623387145   F   F   F
0.0000000000000000   0.2000000000000028   0.3623387145   F   F   F
0.2000000000000028   0.2000000000000028   0.3623387145   F   F   F
0.3999999999999986   0.2000000000000028   0.3623387145   F   F   F
0.6000000000000014   0.2000000000000028   0.3623387145   F   F   F
0.7999999999999972   0.2000000000000028   0.3623387145   F   F   F
0.0000000000000000   0.3999999999999986   0.3623387145   F   F   F
0.2000000000000028   0.3999999999999986   0.3623387145   F   F   F
0.3999999999999986   0.3999999999999986   0.3623387145   F   F   F
0.6000000000000014   0.3999999999999986   0.3623387145   F   F   F
0.7999999999999972   0.3999999999999986   0.3623387145   F   F   F
0.0000000000000000   0.6000000000000014   0.3623387145   F   F   F
0.2000000000000028   0.6000000000000014   0.3623387145   F   F   F
0.3999999999999986   0.6000000000000014   0.3623387145   F   F   F
0.6000000000000014   0.6000000000000014   0.3623387145   F   F   F
0.7999999999999972   0.6000000000000014   0.3623387145   F   F   F
0.0000000000000000   0.7999999999999972   0.3623387145   F   F   F
0.2000000000000028   0.7999999999999972   0.3623387145   F   F   F
0.3999999999999986   0.7999999999999972   0.3623387145   F   F   F
0.6000000000000014   0.7999999999999972   0.3623387145   F   F   F
0.7999999999999972   0.7999999999999972   0.3623387145   F   F   F
0.0666666666666700   0.0666666666666700   0.4310067962   F   F   F
0.2666666666666657   0.0666666666666700   0.4310067962   F   F   F
0.4666666666666686   0.0666666666666700   0.4310067962   F   F   F
0.6666666666666643   0.0666666666666700   0.4310067962   F   F   F
0.8666666666666671   0.0666666666666700   0.4310067962   F   F   F
0.0666666666666700   0.2666666666666657   0.4310067962   F   F   F
0.2666666666666657   0.2666666666666657   0.4310067962   F   F   F
0.4666666666666686   0.2666666666666657   0.4310067962   F   F   F
0.6666666666666643   0.2666666666666657   0.4310067962   F   F   F
0.8666666666666671   0.2666666666666657   0.4310067962   F   F   F
0.0666666666666700   0.4666666666666686   0.4310067962   F   F   F
0.2666666666666657   0.4666666666666686   0.4310067962   F   F   F
0.4666666666666686   0.4666666666666686   0.4310067962   F   F   F
0.6666666666666643   0.4666666666666686   0.4310067962   F   F   F
0.8666666666666671   0.4666666666666686   0.4310067962   F   F   F
0.0666666666666700   0.6666666666666643   0.4310067962   F   F   F
0.2666666666666657   0.6666666666666643   0.4310067962   F   F   F
0.4666666666666686   0.6666666666666643   0.4310067962   F   F   F
0.6666666666666643   0.6666666666666643   0.4310067962   F   F   F
0.8666666666666671   0.6666666666666643   0.4310067962   F   F   F
0.0666666666666700   0.8666666666666671   0.4310067962   F   F   F
0.2666666666666657   0.8666666666666671   0.4310067962   F   F   F
0.4666666666666686   0.8666666666666671   0.4310067962   F   F   F
0.6666666666666643   0.8666666666666671   0.4310067962   F   F   F
0.8666666666666671   0.8666666666666671   0.4310067962   F   F   F
0.9329012724883482   0.1333915036084843   0.4994831675   T   T   T
0.1346815196736407   0.1337522780171272   0.4995489334   T   T   T
0.3343003680259611   0.1344428240685383   0.4992170210   T   T   T
0.5359979954517634   0.1302846448062559   0.4981246784   T   T   T
0.7322976132730686   0.1335321115473555   0.4993232483   T   T   T
0.9342217774437338   0.3326649340432204   0.4994864724   T   T   T
0.1349158940012986   0.3342679305164875   0.4996681142   T   T   T
0.3349140996159095   0.3359048615340441   0.4990862490   T   T   T
0.5309722747437272   0.3305357596489675   0.5016207224   T   T   T
0.7321558837344020   0.3343377397662567   0.4988581960   T   T   T
0.9330394471364865   0.5332562793168203   0.4997939220   T   T   T
0.1312698254548458   0.5343308893131328   0.4982208095   T   T   T
0.3368054440033796   0.5286979570601815   0.4992722427   T   T   T
0.5348053003004666   0.5341709358337575   0.4978216014   T   T   T
0.7342670578563240   0.5334480830157841   0.4996576914   T   T   T
0.9332200210713076   0.7337090963871553   0.4997558551   T   T   T
0.1356565136197294   0.7303364233226195   0.4996386512   T   T   T
0.3344044054142669   0.7307381244047081   0.4997243544   T   T   T
0.5329162552177327   0.7334847095766432   0.4998090406   T   T   T
0.7332501240114215   0.7332106642370073   0.5002250914   T   T   T
0.9340378830686804   0.9331098362953424   0.4995661569   T   T   T
0.1343452776569165   0.9317983683821359   0.4995768016   T   T   T
0.3330668414169943   0.9330506725892188   0.4996275184   T   T   T
0.5327644276473804   0.9327339014651627   0.4998119442   T   T   T
0.7345299538548358   0.9319273257688142   0.4998363193   T   T   T
0.0007019439928175   -0.0006896833369326   0.5683273397   T   T   T
0.2001359742366345   -0.0002280452413918   0.5684108126   T   T   T
0.3994225288112969   0.0004881150616877   0.5686703224   T   T   T
0.5979907355667234   0.0030240043281878   0.5680088379   T   T   T
0.8011628519656555   -0.0012311304193159   0.5685967772   T   T   T
0.0012157269635755   0.2002198332651836   0.5684519052   T   T   T
0.2021056594706840   0.2023756351343366   0.5686117373   T   T   T
0.3990754397361755   0.2072690863874076   0.5646414546   T   T   T
0.6012011980078928   0.2006949524949651   0.5707634035   T   T   T
0.7987078793508997   0.2028042734497738   0.5677345091   T   T   T
0.0018259728301109   0.4003724861684136   0.5685926277   T   T   T
0.2090639973299282   0.4003896713813190   0.5670037286   T   T   T
0.4065818322297745   0.3933019530163746   0.5618304320   T   T   T
0.5941170990995369   0.4025189272130952   0.5650242415   T   T   T
0.8001768948046237   0.4004981884990770   0.5682993592   T   T   T
0.0036999979183589   0.5978414481756396   0.5684251925   T   T   T
0.2094743511046055   0.5900145140085615   0.5668043893   T   T   T
0.4007143045083889   0.5903772125892391   0.5669276783   T   T   T
0.5979273114038814   0.5981831126384207   0.5682518916   T   T   T
0.7997964308795588   0.6001846496714116   0.5696288854   T   T   T
0.0026516692240798   0.7966439517772123   0.5686587447   T   T   T
0.2016068359474049   0.7962886867910562   0.5686780141   T   T   T
0.3997859181811141   0.7980542858167234   0.5687296305   T   T   T
0.5988489094348808   0.8001965914513844   0.5696450536   T   T   T
0.8003077867990827   0.7994065187447920   0.5695056634   T   T   T
0.3788240509411904   0.3267393955442182   0.6789935159   T   T   T
0.3998791277232127   0.3996121687166533   0.6515970766   T   T   T
0.4541785054001636   0.4220975907583623   0.6663359004   T   T   T
0.4536082862608725   0.2530987739119074   0.6859074334   T   T   T
0.3249728141685492   0.4738247810890662   0.6450418451   T   T   T
0.3233612677231332   0.3044500752955133   0.6654078415   T   T   T
0.3422925934152074   0.3689557268565353   0.7063293671   T   T   T
0.5483159918375006   0.2535416191104481   0.6208923232   T   T   T
0.4562878923246107   0.3432000671019749   0.6136168425   T   T   T
 
  0.00000000E+00  0.00000000E+00  0.00000000E+00
  0.00000000E+00  0.00000000E+00  0.00000000E+00
  0.00000000E+00  0.00000000E+00  0.00000000E+00
  0.00000000E+00  0.00000000E+00  0.00000000E+00
  0.00000000E+00  0.00000000E+00  0.00000000E+00
  0.00000000E+00  0.00000000E+00  0.00000000E+00
  0.00000000E+00  0.00000000E+00  0.00000000E+00
  0.00000000E+00  0.00000000E+00  0.00000000E+00
  0.00000000E+00  0.00000000E+00  0.00000000E+00
  0.00000000E+00  0.00000000E+00  0.00000000E+00
  0.00000000E+00  0.00000000E+00  0.00000000E+00
  0.00000000E+00  0.00000000E+00  0.00000000E+00
  0.00000000E+00  0.00000000E+00  0.00000000E+00
  0.00000000E+00  0.00000000E+00  0.00000000E+00
  0.00000000E+00  0.00000000E+00  0.00000000E+00
  0.00000000E+00  0.00000000E+00  0.00000000E+00
  0.00000000E+00  0.00000000E+00  0.00000000E+00
  0.00000000E+00  0.00000000E+00  0.00000000E+00
  0.00000000E+00  0.00000000E+00  0.00000000E+00
  0.00000000E+00  0.00000000E+00  0.00000000E+00
  0.00000000E+00  0.00000000E+00  0.00000000E+00
  0.00000000E+00  0.00000000E+00  0.00000000E+00
  0.00000000E+00  0.00000000E+00  0.00000000E+00
  0.00000000E+00  0.00000000E+00  0.00000000E+00
  0.00000000E+00  0.00000000E+00  0.00000000E+00
  0.00000000E+00  0.00000000E+00  0.00000000E+00
  0.00000000E+00  0.00000000E+00  0.00000000E+00
  0.00000000E+00  0.00000000E+00  0.00000000E+00
  0.00000000E+00  0.00000000E+00  0.00000000E+00
  0.00000000E+00  0.00000000E+00  0.00000000E+00
  0.00000000E+00  0.00000000E+00  0.00000000E+00
  0.00000000E+00  0.00000000E+00  0.00000000E+00
  0.00000000E+00  0.00000000E+00  0.00000000E+00
  0.00000000E+00  0.00000000E+00  0.00000000E+00
  0.00000000E+00  0.00000000E+00  0.00000000E+00
  0.00000000E+00  0.00000000E+00  0.00000000E+00
  0.00000000E+00  0.00000000E+00  0.00000000E+00
  0.00000000E+00  0.00000000E+00  0.00000000E+00
  0.00000000E+00  0.00000000E+00  0.00000000E+00
  0.00000000E+00  0.00000000E+00  0.00000000E+00
  0.00000000E+00  0.00000000E+00  0.00000000E+00
  0.00000000E+00  0.00000000E+00  0.00000000E+00
  0.00000000E+00  0.00000000E+00  0.00000000E+00
  0.00000000E+00  0.00000000E+00  0.00000000E+00
  0.00000000E+00  0.00000000E+00  0.00000000E+00
  0.00000000E+00  0.00000000E+00  0.00000000E+00
  0.00000000E+00  0.00000000E+00  0.00000000E+00
  0.00000000E+00  0.00000000E+00  0.00000000E+00
  0.00000000E+00  0.00000000E+00  0.00000000E+00
  0.00000000E+00  0.00000000E+00  0.00000000E+00
  0.00000000E+00  0.00000000E+00  0.00000000E+00
  0.00000000E+00  0.00000000E+00  0.00000000E+00
  0.00000000E+00  0.00000000E+00  0.00000000E+00
  0.00000000E+00  0.00000000E+00  0.00000000E+00
  0.00000000E+00  0.00000000E+00  0.00000000E+00
  0.00000000E+00  0.00000000E+00  0.00000000E+00
  0.00000000E+00  0.00000000E+00  0.00000000E+00
  0.00000000E+00  0.00000000E+00  0.00000000E+00
  0.00000000E+00  0.00000000E+00  0.00000000E+00
  0.00000000E+00  0.00000000E+00  0.00000000E+00
  0.00000000E+00  0.00000000E+00  0.00000000E+00
  0.00000000E+00  0.00000000E+00  0.00000000E+00
  0.00000000E+00  0.00000000E+00  0.00000000E+00
  0.00000000E+00  0.00000000E+00  0.00000000E+00
  0.00000000E+00  0.00000000E+00  0.00000000E+00
  0.00000000E+00  0.00000000E+00  0.00000000E+00
  0.00000000E+00  0.00000000E+00  0.00000000E+00
  0.00000000E+00  0.00000000E+00  0.00000000E+00
  0.00000000E+00  0.00000000E+00  0.00000000E+00
  0.00000000E+00  0.00000000E+00  0.00000000E+00
  0.00000000E+00  0.00000000E+00  0.00000000E+00
  0.00000000E+00  0.00000000E+00  0.00000000E+00
  0.00000000E+00  0.00000000E+00  0.00000000E+00
  0.00000000E+00  0.00000000E+00  0.00000000E+00
  0.00000000E+00  0.00000000E+00  0.00000000E+00
  0.00000000E+00  0.00000000E+00  0.00000000E+00
  0.00000000E+00  0.00000000E+00  0.00000000E+00
  0.00000000E+00  0.00000000E+00  0.00000000E+00
  0.00000000E+00  0.00000000E+00  0.00000000E+00
  0.00000000E+00  0.00000000E+00  0.00000000E+00
  0.00000000E+00  0.00000000E+00  0.00000000E+00
  0.00000000E+00  0.00000000E+00  0.00000000E+00
  0.00000000E+00  0.00000000E+00  0.00000000E+00
  0.00000000E+00  0.00000000E+00  0.00000000E+00
  0.00000000E+00  0.00000000E+00  0.00000000E+00
  0.00000000E+00  0.00000000E+00  0.00000000E+00
  0.00000000E+00  0.00000000E+00  0.00000000E+00
  0.00000000E+00  0.00000000E+00  0.00000000E+00
  0.00000000E+00  0.00000000E+00  0.00000000E+00
  0.00000000E+00  0.00000000E+00  0.00000000E+00
  0.00000000E+00  0.00000000E+00  0.00000000E+00
  0.00000000E+00  0.00000000E+00  0.00000000E+00
  0.00000000E+00  0.00000000E+00  0.00000000E+00
  0.00000000E+00  0.00000000E+00  0.00000000E+00
  0.00000000E+00  0.00000000E+00  0.00000000E+00
  0.00000000E+00  0.00000000E+00  0.00000000E+00
  0.00000000E+00  0.00000000E+00  0.00000000E+00
  0.00000000E+00  0.00000000E+00  0.00000000E+00
  0.00000000E+00  0.00000000E+00  0.00000000E+00
  0.00000000E+00  0.00000000E+00  0.00000000E+00
  0.00000000E+00  0.00000000E+00  0.00000000E+00
  0.00000000E+00  0.00000000E+00  0.00000000E+00
  0.00000000E+00  0.00000000E+00  0.00000000E+00
  0.00000000E+00  0.00000000E+00  0.00000000E+00
  0.00000000E+00  0.00000000E+00  0.00000000E+00
  0.00000000E+00  0.00000000E+00  0.00000000E+00
  0.00000000E+00  0.00000000E+00  0.00000000E+00
  0.00000000E+00  0.00000000E+00  0.00000000E+00
  0.00000000E+00  0.00000000E+00  0.00000000E+00
  0.00000000E+00  0.00000000E+00  0.00000000E+00
  0.00000000E+00  0.00000000E+00  0.00000000E+00
  0.00000000E+00  0.00000000E+00  0.00000000E+00
  0.00000000E+00  0.00000000E+00  0.00000000E+00
  0.00000000E+00  0.00000000E+00  0.00000000E+00
  0.00000000E+00  0.00000000E+00  0.00000000E+00
  0.00000000E+00  0.00000000E+00  0.00000000E+00
  0.00000000E+00  0.00000000E+00  0.00000000E+00
  0.00000000E+00  0.00000000E+00  0.00000000E+00
  0.00000000E+00  0.00000000E+00  0.00000000E+00
  0.00000000E+00  0.00000000E+00  0.00000000E+00
  0.00000000E+00  0.00000000E+00  0.00000000E+00
  0.00000000E+00  0.00000000E+00  0.00000000E+00
  0.00000000E+00  0.00000000E+00  0.00000000E+00
  0.00000000E+00  0.00000000E+00  0.00000000E+00
  0.00000000E+00  0.00000000E+00  0.00000000E+00
  0.00000000E+00  0.00000000E+00  0.00000000E+00
  0.00000000E+00  0.00000000E+00  0.00000000E+00
  0.00000000E+00  0.00000000E+00  0.00000000E+00
  0.00000000E+00  0.00000000E+00  0.00000000E+00
  0.00000000E+00  0.00000000E+00  0.00000000E+00
  0.00000000E+00  0.00000000E+00  0.00000000E+00
  0.00000000E+00  0.00000000E+00  0.00000000E+00
  0.00000000E+00  0.00000000E+00  0.00000000E+00
  0.00000000E+00  0.00000000E+00  0.00000000E+00
