Al Fe Al  O  C 
 1.0000000000000000
    14.3189123190275875    0.0000000000000000    0.0000000000000000
     7.1594561595137938   12.4005418228398376    0.0000000000000000
   0.0000000000   0.0000000000   31.8774779582
 Al  Fe  Al  O   C  
 112   1  12   1   1
Selective dynamics
Cartesian
14.3189123190275360   1.6534055763786395   10.0000000000   F   F   F
2.8637824638055078   1.6534055763786395   10.0000000000   F   F   F
5.7275649276110663   1.6534055763786395   10.0000000000   F   F   F
8.5913473914165230   1.6534055763786395   10.0000000000   F   F   F
11.4551298552220793   1.6534055763786395   10.0000000000   F   F   F
15.7508035509303159   4.1335139409466422   10.0000000000   F   F   F
4.2956736957082864   4.1335139409466422   10.0000000000   F   F   F
7.1594561595138444   4.1335139409466422   10.0000000000   F   F   F
10.0232386233193012   4.1335139409466422   10.0000000000   F   F   F
12.8870210871248592   4.1335139409466422   10.0000000000   F   F   F
17.1826947828330425   6.6136223055145562   10.0000000000   F   F   F
5.7275649276110148   6.6136223055145562   10.0000000000   F   F   F
8.5913473914165728   6.6136223055145562   10.0000000000   F   F   F
11.4551298552220295   6.6136223055145562   10.0000000000   F   F   F
14.3189123190275875   6.6136223055145562   10.0000000000   F   F   F
18.6145860147358206   9.0937306700825591   10.0000000000   F   F   F
7.1594561595137938   9.0937306700825591   10.0000000000   F   F   F
10.0232386233193509   9.0937306700825591   10.0000000000   F   F   F
12.8870210871248077   9.0937306700825591   10.0000000000   F   F   F
15.7508035509303657   9.0937306700825591   10.0000000000   F   F   F
20.0464772466386023   11.5738390346505629   10.0000000000   F   F   F
8.5913473914165728   11.5738390346505629   10.0000000000   F   F   F
11.4551298552221308   11.5738390346505629   10.0000000000   F   F   F
14.3189123190275875   11.5738390346505629   10.0000000000   F   F   F
17.1826947828331456   11.5738390346505629   10.0000000000   F   F   F
0.0000000000000000   0.0000000000000000   12.3382685902   F   F   F
2.8637824638055576   0.0000000000000000   12.3382685902   F   F   F
5.7275649276110148   0.0000000000000000   12.3382685902   F   F   F
8.5913473914165728   0.0000000000000000   12.3382685902   F   F   F
11.4551298552220295   0.0000000000000000   12.3382685902   F   F   F
1.4318912319027788   2.4801083645680020   12.3382685902   F   F   F
4.2956736957083361   2.4801083645680020   12.3382685902   F   F   F
7.1594561595137938   2.4801083645680020   12.3382685902   F   F   F
10.0232386233193509   2.4801083645680020   12.3382685902   F   F   F
12.8870210871248077   2.4801083645680020   12.3382685902   F   F   F
2.8637824638055074   4.9602167291359178   12.3382685902   F   F   F
5.7275649276110645   4.9602167291359178   12.3382685902   F   F   F
8.5913473914165230   4.9602167291359178   12.3382685902   F   F   F
11.4551298552220793   4.9602167291359178   12.3382685902   F   F   F
14.3189123190275360   4.9602167291359178   12.3382685902   F   F   F
4.2956736957082864   7.4403250937039198   12.3382685902   F   F   F
7.1594561595138444   7.4403250937039198   12.3382685902   F   F   F
10.0232386233193012   7.4403250937039198   12.3382685902   F   F   F
12.8870210871248592   7.4403250937039198   12.3382685902   F   F   F
15.7508035509303159   7.4403250937039198   12.3382685902   F   F   F
5.7275649276110148   9.9204334582718356   12.3382685902   F   F   F
8.5913473914165728   9.9204334582718356   12.3382685902   F   F   F
11.4551298552220295   9.9204334582718356   12.3382685902   F   F   F
14.3189123190275875   9.9204334582718356   12.3382685902   F   F   F
17.1826947828330461   9.9204334582718356   12.3382685902   F   F   F
1.4318912319028303   0.8267027881893638   14.6765371804   F   F   F
4.2956736957082864   0.8267027881893638   14.6765371804   F   F   F
7.1594561595138453   0.8267027881893638   14.6765371804   F   F   F
10.0232386233193012   0.8267027881893638   14.6765371804   F   F   F
12.8870210871248592   0.8267027881893638   14.6765371804   F   F   F
2.8637824638055585   3.3068111527572781   14.6765371804   F   F   F
5.7275649276110148   3.3068111527572781   14.6765371804   F   F   F
8.5913473914165728   3.3068111527572781   14.6765371804   F   F   F
11.4551298552220295   3.3068111527572781   14.6765371804   F   F   F
14.3189123190275875   3.3068111527572781   14.6765371804   F   F   F
4.2956736957083379   5.7869195173252814   14.6765371804   F   F   F
7.1594561595137947   5.7869195173252814   14.6765371804   F   F   F
10.0232386233193527   5.7869195173252814   14.6765371804   F   F   F
12.8870210871248094   5.7869195173252814   14.6765371804   F   F   F
15.7508035509303674   5.7869195173252814   14.6765371804   F   F   F
5.7275649276110663   8.2670278818931955   14.6765371804   F   F   F
8.5913473914165230   8.2670278818931955   14.6765371804   F   F   F
11.4551298552220810   8.2670278818931955   14.6765371804   F   F   F
14.3189123190275378   8.2670278818931955   14.6765371804   F   F   F
17.1826947828330958   8.2670278818931955   14.6765371804   F   F   F
7.1594561595138453   10.7471362464611992   14.6765371804   F   F   F
10.0232386233193012   10.7471362464611992   14.6765371804   F   F   F
12.8870210871248609   10.7471362464611992   14.6765371804   F   F   F
15.7508035509303177   10.7471362464611992   14.6765371804   F   F   F
18.6145860147358739   10.7471362464611992   14.6765371804   F   F   F
14.3093707077802481   1.6589241619776762   17.0133232831   T   T   T
2.8733050169304839   1.6589034135388370   17.0133193201   T   T   T
5.7450196430588436   1.6640366091925838   17.0152107168   T   T   T
8.5913430173640677   1.6239756276522441   16.9707423157   T   T   T
11.4376623578625995   1.6640618831103411   17.0152090210   T   T   T
15.7507942341535436   4.1318303279438719   17.0217014369   T   T   T
4.3136077976406071   4.1433146504348510   17.0152107102   T   T   T
7.1830018827556898   4.1471080867588599   16.9911808047   T   T   T
9.9996659392446574   4.1471281156523681   16.9911823513   T   T   T
12.8690669553410864   4.1433466299781729   17.0152159361   T   T   T
17.1768884428803297   6.6142821307621071   17.0208156548   T   T   T
5.7020756522263598   6.6283334926293067   16.9707423284   T   T   T
8.5913512749522205   6.5864006820389545   16.9911823534   T   T   T
11.4806243916821433   6.6283415846991973   16.9707425230   T   T   T
14.3247342716829351   6.6142879882392309   17.0208107792   T   T   T
18.6108376007431318   9.0983061090356223   17.0206835422   T   T   T
7.1599510457800921   9.0732752138533588   17.0152090482   T   T   T
10.0227769163343492   9.0732655891545253   17.0152159887   T   T   T
12.8905085441851490   9.0984398006940115   17.0208108006   T   T   T
15.7508150127113815   9.0937372965662622   17.0273067886   T   T   T
20.0479542904342551   11.5746917980057038   17.0216952992   T   T   T
8.5913558323959833   11.5628164401004430   17.0133233192   T   T   T
11.4536671376056738   11.5746727654032249   17.0217014922   T   T   T
14.3165805613013326   11.5684806925876078   17.0208156583   T   T   T
17.1847830248054763   11.5683050951468438   17.0206835312   T   T   T
-0.0058420730832890   -0.0033729314648856   19.3695104567   T   T   T
2.8696190434141240   -0.0033890185760585   19.3695125790   T   T   T
5.7433600500540818   0.0218284712322564   19.3826102155   T   T   T
8.5913471845833822   0.0469160790814966   19.3659499684   T   T   T
11.4393265857562891   0.0218100760353279   19.3826066381   T   T   T
1.4318745483294226   2.4868574901877043   19.3695125152   T   T   T
4.3333686712593238   2.5018715785850612   19.3756945867   T   T   T
7.2188972792140822   2.5720234429070490   19.3230080360   T   T   T
9.9637908419348236   2.5720195611795167   19.3229948186   T   T   T
12.8493032030860590   2.5018915719869903   19.3756930751   T   T   T
2.8905840087854076   4.9629814749769698   19.3826101785   T   T   T
5.8368862461372402   4.9657367023271037   19.3230080652   T   T   T
8.5913446215333416   4.9602151254576379   18.9657528561   T   T   T
11.3458129410756801   4.9657499964783378   19.3230096173   T   T   T
14.2921200100087127   4.9630312487679644   19.3826196926   T   T   T
4.3363040888440398   7.4168668786855454   19.3659499862   T   T   T
7.2093297011395041   7.3428861672263945   19.3229948318   T   T   T
9.9733721190572417   7.3428871679860652   19.3230096421   T   T   T
12.8464228067583441   7.4168856541529840   19.3659392383   T   T   T
15.7508285206077847   7.4337327219542022   19.4044324542   T   T   T
5.7385513649694433   9.8958423775399194   19.3826066630   T   T   T
8.5913532556024066   9.8768771667568362   19.3756931417   T   T   T
11.4441711453415991   9.8958233529937427   19.3826197797   T   T   T
14.3132156362208320   9.9237512908248338   19.4044324649   T   T   T
17.1884095923587701   9.9237329213110197   19.4044244708   T   T   T
8.6049273354331994   4.9474289987188511   21.8774779582   T   T   T
8.6024004421532396   4.9432632279157049   20.7294882641   T   T   T
