Al  C 
 1.0000000000000000
    14.3189123190275875    0.0000000000000000    0.0000000000000000
     7.1594561595137938   12.4005418228398376    0.0000000000000000
   0.0000000000   0.0000000000   31.3000000000
 Al  C  
 125   1
Selective dynamics
Cartesian
14.3189123190275360   1.6534055763786395   10.0000000000   F   F   F
2.8637824638055078   1.6534055763786395   10.0000000000   F   F   F
5.7275649276110663   1.6534055763786395   10.0000000000   F   F   F
8.5913473914165230   1.6534055763786395   10.0000000000   F   F   F
11.4551298552220793   1.6534055763786395   10.0000000000   F   F   F
15.7508035509303159   4.1335139409466422   10.0000000000   F   F   F
4.2956736957082864   4.1335139409466422   10.0000000000   F   F   F
7.1594561595138444   4.1335139409466422   10.0000000000   F   F   F
10.0232386233193012   4.1335139409466422   10.0000000000   F   F   F
12.8870210871248592   4.1335139409466422   10.0000000000   F   F   F
17.1826947828330425   6.6136223055145562   10.0000000000   F   F   F
5.7275649276110148   6.6136223055145562   10.0000000000   F   F   F
8.5913473914165728   6.6136223055145562   10.0000000000   F   F   F
11.4551298552220295   6.6136223055145562   10.0000000000   F   F   F
14.3189123190275875   6.6136223055145562   10.0000000000   F   F   F
18.6145860147358242   9.0937306700825591   10.0000000000   F   F   F
7.1594561595137938   9.0937306700825591   10.0000000000   F   F   F
10.0232386233193527   9.0937306700825591   10.0000000000   F   F   F
12.8870210871248094   9.0937306700825591   10.0000000000   F   F   F
15.7508035509303657   9.0937306700825591   10.0000000000   F   F   F
20.0464772466386023   11.5738390346505629   10.0000000000   F   F   F
8.5913473914165728   11.5738390346505629   10.0000000000   F   F   F
11.4551298552221308   11.5738390346505629   10.0000000000   F   F   F
14.3189123190275875   11.5738390346505629   10.0000000000   F   F   F
17.1826947828331456   11.5738390346505629   10.0000000000   F   F   F
0.0000000000000000   0.0000000000000000   12.3382685902   F   F   F
2.8637824638055576   0.0000000000000000   12.3382685902   F   F   F
5.7275649276110148   0.0000000000000000   12.3382685902   F   F   F
8.5913473914165728   0.0000000000000000   12.3382685902   F   F   F
11.4551298552220295   0.0000000000000000   12.3382685902   F   F   F
1.4318912319027788   2.4801083645680020   12.3382685902   F   F   F
4.2956736957083361   2.4801083645680020   12.3382685902   F   F   F
7.1594561595137938   2.4801083645680020   12.3382685902   F   F   F
10.0232386233193509   2.4801083645680020   12.3382685902   F   F   F
12.8870210871248077   2.4801083645680020   12.3382685902   F   F   F
2.8637824638055074   4.9602167291359178   12.3382685902   F   F   F
5.7275649276110645   4.9602167291359178   12.3382685902   F   F   F
8.5913473914165213   4.9602167291359178   12.3382685902   F   F   F
11.4551298552220793   4.9602167291359178   12.3382685902   F   F   F
14.3189123190275360   4.9602167291359178   12.3382685902   F   F   F
4.2956736957082864   7.4403250937039198   12.3382685902   F   F   F
7.1594561595138444   7.4403250937039198   12.3382685902   F   F   F
10.0232386233193012   7.4403250937039198   12.3382685902   F   F   F
12.8870210871248592   7.4403250937039198   12.3382685902   F   F   F
15.7508035509303159   7.4403250937039198   12.3382685902   F   F   F
5.7275649276110148   9.9204334582718356   12.3382685902   F   F   F
8.5913473914165728   9.9204334582718356   12.3382685902   F   F   F
11.4551298552220295   9.9204334582718356   12.3382685902   F   F   F
14.3189123190275875   9.9204334582718356   12.3382685902   F   F   F
17.1826947828330425   9.9204334582718356   12.3382685902   F   F   F
1.4318912319028303   0.8267027881893638   14.6765371804   F   F   F
4.2956736957082864   0.8267027881893638   14.6765371804   F   F   F
7.1594561595138453   0.8267027881893638   14.6765371804   F   F   F
10.0232386233193012   0.8267027881893638   14.6765371804   F   F   F
12.8870210871248592   0.8267027881893638   14.6765371804   F   F   F
2.8637824638055585   3.3068111527572781   14.6765371804   F   F   F
5.7275649276110148   3.3068111527572781   14.6765371804   F   F   F
8.5913473914165728   3.3068111527572781   14.6765371804   F   F   F
11.4551298552220295   3.3068111527572781   14.6765371804   F   F   F
14.3189123190275875   3.3068111527572781   14.6765371804   F   F   F
4.2956736957083379   5.7869195173252814   14.6765371804   F   F   F
7.1594561595137947   5.7869195173252814   14.6765371804   F   F   F
10.0232386233193527   5.7869195173252814   14.6765371804   F   F   F
12.8870210871248094   5.7869195173252814   14.6765371804   F   F   F
15.7508035509303674   5.7869195173252814   14.6765371804   F   F   F
5.7275649276110654   8.2670278818931955   14.6765371804   F   F   F
8.5913473914165230   8.2670278818931955   14.6765371804   F   F   F
11.4551298552220810   8.2670278818931955   14.6765371804   F   F   F
14.3189123190275378   8.2670278818931955   14.6765371804   F   F   F
17.1826947828330958   8.2670278818931955   14.6765371804   F   F   F
7.1594561595138453   10.7471362464611992   14.6765371804   F   F   F
10.0232386233193012   10.7471362464611992   14.6765371804   F   F   F
12.8870210871248592   10.7471362464611992   14.6765371804   F   F   F
15.7508035509303159   10.7471362464611992   14.6765371804   F   F   F
18.6145860147358739   10.7471362464611992   14.6765371804   F   F   F
14.3189123190275360   1.6534055763786395   17.0182235485   T   T   T
2.8637824638055078   1.6534055763786395   17.0182235485   T   T   T
5.7275649276110663   1.6534055763786395   17.0182235485   T   T   T
8.5913473914165230   1.6534055763786395   17.0182235485   T   T   T
11.4551298552220793   1.6534055763786395   17.0182235485   T   T   T
15.7508035509303159   4.1335139409466422   17.0182235485   T   T   T
4.2956736957082864   4.1335139409466422   17.0182235485   T   T   T
7.1594561595138444   4.1335139409466422   17.0182235485   T   T   T
10.0232386233193012   4.1335139409466422   17.0182235485   T   T   T
12.8870210871248592   4.1335139409466422   17.0182235485   T   T   T
17.1826947828330425   6.6136223055145562   17.0182235485   T   T   T
5.7275649276110148   6.6136223055145562   17.0182235485   T   T   T
8.5913473914165728   6.6136223055145562   17.0182235485   T   T   T
11.4551298552220295   6.6136223055145562   17.0182235485   T   T   T
14.3189123190275875   6.6136223055145562   17.0182235485   T   T   T
18.6145860147358242   9.0937306700825591   17.0182235485   T   T   T
7.1594561595137938   9.0937306700825591   17.0182235485   T   T   T
10.0232386233193527   9.0937306700825591   17.0182235485   T   T   T
12.8870210871248094   9.0937306700825591   17.0182235485   T   T   T
15.7508035509303657   9.0937306700825591   17.0182235485   T   T   T
20.0464772466386023   11.5738390346505629   17.0182235485   T   T   T
8.5913473914165728   11.5738390346505629   17.0182235485   T   T   T
11.4551298552221308   11.5738390346505629   17.0182235485   T   T   T
14.3189123190275875   11.5738390346505629   17.0182235485   T   T   T
17.1826947828331456   11.5738390346505629   17.0182235485   T   T   T
0.0000000000000000   0.0000000000000000   19.3753743853   T   T   T
2.8637824638055576   0.0000000000000000   19.3753743853   T   T   T
5.7275649276110148   0.0000000000000000   19.3753743853   T   T   T
8.5913473914165728   0.0000000000000000   19.3753743853   T   T   T
11.4551298552220295   0.0000000000000000   19.3753743853   T   T   T
1.4318912319027788   2.4801083645680020   19.3753743853   T   T   T
4.2956736957083361   2.4801083645680020   19.3753743853   T   T   T
7.1594561595137938   2.4801083645680020   19.3753743853   T   T   T
10.0232386233193509   2.4801083645680020   19.3753743853   T   T   T
12.8870210871248077   2.4801083645680020   19.3753743853   T   T   T
2.8637824638055074   4.9602167291359178   19.3753743853   T   T   T
5.7275649276110645   4.9602167291359178   19.3753743853   T   T   T
8.5913473914165213   4.9602167291359178   19.3753743853   T   T   T
11.4551298552220793   4.9602167291359178   19.3753743853   T   T   T
14.3189123190275360   4.9602167291359178   19.3753743853   T   T   T
4.2956736957082864   7.4403250937039198   19.3753743853   T   T   T
7.1594561595138444   7.4403250937039198   19.3753743853   T   T   T
10.0232386233193012   7.4403250937039198   19.3753743853   T   T   T
12.8870210871248592   7.4403250937039198   19.3753743853   T   T   T
15.7508035509303159   7.4403250937039198   19.3753743853   T   T   T
5.7275649276110148   9.9204334582718356   19.3753743853   T   T   T
8.5913473914165728   9.9204334582718356   19.3753743853   T   T   T
11.4551298552220295   9.9204334582718356   19.3753743853   T   T   T
14.3189123190275875   9.9204334582718356   19.3753743853   T   T   T
17.1826947828330425   9.9204334582718356   19.3753743853   T   T   T
8.4999999999999876   4.9000000000000004   21.3000000000   T   T   T
