Al Fe 
 1.0000000000000000
    14.3189123190275875    0.0000000000000000    0.0000000000000000
     7.1594561595137938   12.4005418228398376    0.0000000000000000
   0.0000000000   0.0000000000   29.4132587906
 Al  Fe 
 122   3
Selective dynamics
Cartesian
14.8630292790530341   1.7691441664196852   10.0000000000   F   F   F
3.4078994238310059   1.7691441664196852   10.0000000000   F   F   F
6.2716818876365643   1.7691441664196852   10.0000000000   F   F   F
9.1354643514420211   1.7691441664196852   10.0000000000   F   F   F
11.9992468152475773   1.7691441664196852   10.0000000000   F   F   F
16.2949205109558122   4.2492525309876878   10.0000000000   F   F   F
4.8397906557337844   4.2492525309876878   10.0000000000   F   F   F
7.7035731195393424   4.2492525309876878   10.0000000000   F   F   F
10.5673555833447992   4.2492525309876878   10.0000000000   F   F   F
13.4311380471503572   4.2492525309876878   10.0000000000   F   F   F
17.7268117428585370   6.7293608955556019   10.0000000000   F   F   F
6.2716818876365128   6.7293608955556019   10.0000000000   F   F   F
9.1354643514420708   6.7293608955556019   10.0000000000   F   F   F
11.9992468152475276   6.7293608955556019   10.0000000000   F   F   F
14.8630292790530856   6.7293608955556019   10.0000000000   F   F   F
19.1587029747613187   9.2094692601236048   10.0000000000   F   F   F
7.7035731195392918   9.2094692601236048   10.0000000000   F   F   F
10.5673555833448489   9.2094692601236048   10.0000000000   F   F   F
13.4311380471503057   9.2094692601236048   10.0000000000   F   F   F
16.2949205109558619   9.2094692601236048   10.0000000000   F   F   F
20.5905942066641003   11.6895776246916085   10.0000000000   F   F   F
9.1354643514420708   11.6895776246916085   10.0000000000   F   F   F
11.9992468152476288   11.6895776246916085   10.0000000000   F   F   F
14.8630292790530856   11.6895776246916085   10.0000000000   F   F   F
17.7268117428586436   11.6895776246916085   10.0000000000   F   F   F
0.5441169600254980   0.1157385900410457   12.3382685902   F   F   F
3.4078994238310556   0.1157385900410457   12.3382685902   F   F   F
6.2716818876365128   0.1157385900410457   12.3382685902   F   F   F
9.1354643514420708   0.1157385900410457   12.3382685902   F   F   F
11.9992468152475276   0.1157385900410457   12.3382685902   F   F   F
1.9760081919282770   2.5958469546090477   12.3382685902   F   F   F
4.8397906557338342   2.5958469546090477   12.3382685902   F   F   F
7.7035731195392918   2.5958469546090477   12.3382685902   F   F   F
10.5673555833448489   2.5958469546090477   12.3382685902   F   F   F
13.4311380471503057   2.5958469546090477   12.3382685902   F   F   F
3.4078994238310054   5.0759553191769635   12.3382685902   F   F   F
6.2716818876365625   5.0759553191769635   12.3382685902   F   F   F
9.1354643514420211   5.0759553191769635   12.3382685902   F   F   F
11.9992468152475773   5.0759553191769635   12.3382685902   F   F   F
14.8630292790530341   5.0759553191769635   12.3382685902   F   F   F
4.8397906557337844   7.5560636837449655   12.3382685902   F   F   F
7.7035731195393424   7.5560636837449655   12.3382685902   F   F   F
10.5673555833447992   7.5560636837449655   12.3382685902   F   F   F
13.4311380471503572   7.5560636837449655   12.3382685902   F   F   F
16.2949205109558122   7.5560636837449655   12.3382685902   F   F   F
6.2716818876365128   10.0361720483128813   12.3382685902   F   F   F
9.1354643514420708   10.0361720483128813   12.3382685902   F   F   F
11.9992468152475276   10.0361720483128813   12.3382685902   F   F   F
14.8630292790530856   10.0361720483128813   12.3382685902   F   F   F
17.7268117428585441   10.0361720483128813   12.3382685902   F   F   F
1.9760081919283286   0.9424413782304095   14.6765371804   F   F   F
4.8397906557337844   0.9424413782304095   14.6765371804   F   F   F
7.7035731195393433   0.9424413782304095   14.6765371804   F   F   F
10.5673555833447992   0.9424413782304095   14.6765371804   F   F   F
13.4311380471503572   0.9424413782304095   14.6765371804   F   F   F
3.4078994238310565   3.4225497427983238   14.6765371804   F   F   F
6.2716818876365128   3.4225497427983238   14.6765371804   F   F   F
9.1354643514420708   3.4225497427983238   14.6765371804   F   F   F
11.9992468152475276   3.4225497427983238   14.6765371804   F   F   F
14.8630292790530856   3.4225497427983238   14.6765371804   F   F   F
4.8397906557338359   5.9026581073663271   14.6765371804   F   F   F
7.7035731195392927   5.9026581073663271   14.6765371804   F   F   F
10.5673555833448507   5.9026581073663271   14.6765371804   F   F   F
13.4311380471503075   5.9026581073663271   14.6765371804   F   F   F
16.2949205109558619   5.9026581073663271   14.6765371804   F   F   F
6.2716818876365643   8.3827664719342430   14.6765371804   F   F   F
9.1354643514420211   8.3827664719342430   14.6765371804   F   F   F
11.9992468152475791   8.3827664719342430   14.6765371804   F   F   F
14.8630292790530358   8.3827664719342430   14.6765371804   F   F   F
17.7268117428585938   8.3827664719342430   14.6765371804   F   F   F
7.7035731195393433   10.8628748365022467   14.6765371804   F   F   F
10.5673555833447992   10.8628748365022467   14.6765371804   F   F   F
13.4311380471503590   10.8628748365022467   14.6765371804   F   F   F
16.2949205109558122   10.8628748365022467   14.6765371804   F   F   F
19.1587029747613684   10.8628748365022467   14.6765371804   F   F   F
14.8630328863950005   1.7691330553743394   17.0119541174   T   T   T
3.4299630236384338   1.7750672887473149   17.0105868748   T   T   T
6.3006831113146164   1.7608001060710494   16.9921371893   T   T   T
9.1064354532754095   1.7608256915443996   16.9921610621   T   T   T
11.9771679471765005   1.7750312085035478   17.0105316289   T   T   T
16.3110889422151502   4.2653923972529713   17.0105886167   T   T   T
4.8510261799416465   4.2557167298721970   16.9518884379   T   T   T
7.7035850859722350   4.2815690719010160   17.0023638743   T   T   T
10.5561388031949406   4.2556882995222782   16.9519444991   T   T   T
13.4149832540340590   4.2654173032986966   17.0105311119   T   T   T
17.7340392847486612   6.7586572502389917   16.9921388776   T   T   T
6.2995750805431916   6.7132091038535346   17.0023688231   T   T   T
9.1075839679259634   6.7131950344204956   17.0023755407   T   T   T
11.9920085320890113   6.7586601776665427   16.9921387841   T   T   T
14.8630257209190404   6.7395284086519363   17.0173919381   T   T   T
19.1369984744457753   9.1884704947954319   16.9921956096   T   T   T
7.7035605200279500   9.1963884355542653   16.9520360849   T   T   T
10.5890647868643342   9.1884979416213888   16.9921827507   T   T   T
13.4434487055951113   9.2165747887227241   17.0193838605   T   T   T
16.2826074520760358   9.2165737991347783   17.0193853755   T   T   T
20.5846323186693780   11.6675304311079664   17.0105157554   T   T   T
9.1414114004797842   11.6675341238243746   17.0105168514   T   T   T
12.0080454728936310   11.6844881287087468   17.0173875578   T   T   T
14.8630318685433451   11.6753733810573408   17.0193757947   T   T   T
17.7179664434379944   11.6844911568252243   17.0173754272   T   T   T
7.7035654197427279   12.4852950950329813   19.3434278116   T   T   T
10.5741633156950634   12.5123585681521661   19.3578468528   T   T   T
6.2823258190653304   0.1811092104892262   19.3552875083   T   T   T
9.1248392951192141   0.1810728106134543   19.3553171158   T   T   T
19.1519056556900864   12.5123501000430331   19.3578408162   T   T   T
2.0028861564981457   2.6113646772501018   19.3434960916   T   T   T
4.9259880636649198   2.6932526835961585   19.2993918436   T   T   T
7.7035721417910228   2.9066310906983395   19.3330870588   T   T   T
10.4811587426090895   2.6931842442283664   19.2993698480   T   T   T
13.4043009591211337   2.6113519877984603   19.3434563066   T   T   T
3.5353059504732660   5.1018469478046624   19.2993951085   T   T   T
11.8719095527771046   5.1018680838380330   19.2993752644   T   T   T
14.8630355866549202   5.0838171133985863   19.3578453021   T   T   T
5.1087221730210901   7.4006605701242023   19.3330747744   T   T   T
10.2985183965709446   7.4007510847183164   19.3329636742   T   T   T
13.3692452162082294   7.5326145893807572   19.3553387986   T   T   T
16.3568424476943619   7.5325913765177308   19.3553321770   T   T   T
6.3128559912734517   9.9128741620653642   19.2993584230   T   T   T
9.0942762730642315   9.9129198010413297   19.2993627050   T   T   T
11.9480194478472370   9.9943260487826180   19.3553355343   T   T   T
14.8630211481536776   10.0361800132545760   19.4132587906   T   T   T
17.7780371836840274   9.9943166945765753   19.3553315754   T   T   T
6.1722160013238092   5.0185609307556653   18.9141140038   T   T   T
9.2349451577564530   5.0185881284033815   18.9140258788   T   T   T
7.7036003460587787   7.6708060541806695   18.9138909837   T   T   T
