O atom in a box
 1.0          ! universal scaling parameters
    14.3189123190275875    0.0000000000000000    0.0000000000000000
     7.1594561595137938   12.4005418228398376    0.0000000000000000
     0.0000000000000000    0.0000000000000000   39.3530743608719362 
O C
1 1           ! number of atoms for each species
cart          ! positions in cartesian coordinates
 10.7391842392706907 6.2002709114199188 19.67653718        ! first atom
 10.7391842392706907 6.2002709114199188 20.79653718        ! second atom
