C  H 
 1.0000000000000000
    14.3189123190275875    0.0000000000000000    0.0000000000000000
     7.1594561595137938   12.4005418228398376    0.0000000000000000
   0.0000000000   0.0000000000   29.4703530921
 C   H  
   7  16
Cartesian
10.7377842167627406   5.6721417604763804   12.1766210237
10.7405612304334248   6.5540220274033434   18.5681392738
10.7402750530736846   5.6975874618913327   17.2986686834
10.7397500606552558   5.6911615690022028   14.7340798886
10.7404659257561939   6.5313232736418687   16.0124673305
10.7383651736026415   6.5236452523420656   13.4497171271
10.7376544056552898   6.5091944544167415   10.8945408407
10.7375194454061837   5.8806504566771878   10.0000000000
10.7403323303079308   5.9378660605064884   19.4703530921
11.6163768061656043   5.0356135083359330   17.2990807616
9.8638721629260822   5.0367872160375189   17.2993665544
9.8619142191595621   7.1899408412222687   16.0108592188
11.6185841034563335   7.1900869482935441   16.0105461511
11.6174240183453570   5.0314189799163493   14.7325508054
9.8624103532227831   5.0310649537178911   14.7336209401
11.6250071668547594   7.1970167701744856   18.6046253614
9.8606778613341799   5.0133641141141112   12.1849297026
11.6200987161196334   7.1548515380700355   10.8507684198
9.8550008827779862   7.1548370399334811   10.8510848326
9.8591454233152458   7.1811818517281303   13.4416999154
11.6170212559347714   7.1821568904976321   13.4406309066
11.6149231794883416   5.0132812794578712   12.1844140166
9.8560735124719123   7.1970367148012588   18.6046123614
