Al Fe Al  O  H                          
   1.00000000000000     
    14.3189123190275875    0.0000000000000000    0.0000000000000000
     7.1594561595137938   12.4005418228398376    0.0000000000000000
   0.0000000000   0.0000000000   31.3098030437
   Al   Fe   Al   O    H 
   112     1    12     1     1
Selective dynamics
Direct
0.9333333333333300   0.1333333333333329   0.3193887865   F   F   F
0.1333333333333329   0.1333333333333329   0.3193887865   F   F   F
0.3333333333333357   0.1333333333333329   0.3193887865   F   F   F
0.5333333333333314   0.1333333333333329   0.3193887865   F   F   F
0.7333333333333343   0.1333333333333329   0.3193887865   F   F   F
0.9333333333333300   0.3333333333333357   0.3193887865   F   F   F
0.1333333333333329   0.3333333333333357   0.3193887865   F   F   F
0.3333333333333357   0.3333333333333357   0.3193887865   F   F   F
0.5333333333333314   0.3333333333333357   0.3193887865   F   F   F
0.7333333333333343   0.3333333333333357   0.3193887865   F   F   F
0.9333333333333300   0.5333333333333314   0.3193887865   F   F   F
0.1333333333333329   0.5333333333333314   0.3193887865   F   F   F
0.3333333333333357   0.5333333333333314   0.3193887865   F   F   F
0.5333333333333314   0.5333333333333314   0.3193887865   F   F   F
0.7333333333333343   0.5333333333333314   0.3193887865   F   F   F
0.9333333333333300   0.7333333333333343   0.3193887865   F   F   F
0.1333333333333329   0.7333333333333343   0.3193887865   F   F   F
0.3333333333333357   0.7333333333333343   0.3193887865   F   F   F
0.5333333333333314   0.7333333333333343   0.3193887865   F   F   F
0.7333333333333343   0.7333333333333343   0.3193887865   F   F   F
0.9333333333333300   0.9333333333333371   0.3193887865   F   F   F
0.1333333333333329   0.9333333333333371   0.3193887865   F   F   F
0.3333333333333357   0.9333333333333371   0.3193887865   F   F   F
0.5333333333333314   0.9333333333333371   0.3193887865   F   F   F
0.7333333333333343   0.9333333333333371   0.3193887865   F   F   F
0.0000000000000000   0.0000000000000000   0.3940704633   F   F   F
0.2000000000000028   0.0000000000000000   0.3940704633   F   F   F
0.3999999999999986   0.0000000000000000   0.3940704633   F   F   F
0.6000000000000014   0.0000000000000000   0.3940704633   F   F   F
0.7999999999999972   0.0000000000000000   0.3940704633   F   F   F
0.0000000000000000   0.2000000000000028   0.3940704633   F   F   F
0.2000000000000028   0.2000000000000028   0.3940704633   F   F   F
0.3999999999999986   0.2000000000000028   0.3940704633   F   F   F
0.6000000000000014   0.2000000000000028   0.3940704633   F   F   F
0.7999999999999972   0.2000000000000028   0.3940704633   F   F   F
0.0000000000000000   0.3999999999999986   0.3940704633   F   F   F
0.2000000000000028   0.3999999999999986   0.3940704633   F   F   F
0.3999999999999986   0.3999999999999986   0.3940704633   F   F   F
0.6000000000000014   0.3999999999999986   0.3940704633   F   F   F
0.7999999999999972   0.3999999999999986   0.3940704633   F   F   F
0.0000000000000000   0.6000000000000014   0.3940704633   F   F   F
0.2000000000000028   0.6000000000000014   0.3940704633   F   F   F
0.3999999999999986   0.6000000000000014   0.3940704633   F   F   F
0.6000000000000014   0.6000000000000014   0.3940704633   F   F   F
0.7999999999999972   0.6000000000000014   0.3940704633   F   F   F
0.0000000000000000   0.7999999999999972   0.3940704633   F   F   F
0.2000000000000028   0.7999999999999972   0.3940704633   F   F   F
0.3999999999999986   0.7999999999999972   0.3940704633   F   F   F
0.6000000000000014   0.7999999999999972   0.3940704633   F   F   F
0.7999999999999972   0.7999999999999972   0.3940704633   F   F   F
0.0666666666666700   0.0666666666666700   0.4687521401   F   F   F
0.2666666666666657   0.0666666666666700   0.4687521401   F   F   F
0.4666666666666686   0.0666666666666700   0.4687521401   F   F   F
0.6666666666666643   0.0666666666666700   0.4687521401   F   F   F
0.8666666666666671   0.0666666666666700   0.4687521401   F   F   F
0.0666666666666700   0.2666666666666657   0.4687521401   F   F   F
0.2666666666666657   0.2666666666666657   0.4687521401   F   F   F
0.4666666666666686   0.2666666666666657   0.4687521401   F   F   F
0.6666666666666643   0.2666666666666657   0.4687521401   F   F   F
0.8666666666666671   0.2666666666666657   0.4687521401   F   F   F
0.0666666666666700   0.4666666666666686   0.4687521401   F   F   F
0.2666666666666657   0.4666666666666686   0.4687521401   F   F   F
0.4666666666666686   0.4666666666666686   0.4687521401   F   F   F
0.6666666666666643   0.4666666666666686   0.4687521401   F   F   F
0.8666666666666671   0.4666666666666686   0.4687521401   F   F   F
0.0666666666666700   0.6666666666666643   0.4687521401   F   F   F
0.2666666666666657   0.6666666666666643   0.4687521401   F   F   F
0.4666666666666686   0.6666666666666643   0.4687521401   F   F   F
0.6666666666666643   0.6666666666666643   0.4687521401   F   F   F
0.8666666666666671   0.6666666666666643   0.4687521401   F   F   F
0.0666666666666700   0.8666666666666671   0.4687521401   F   F   F
0.2666666666666657   0.8666666666666671   0.4687521401   F   F   F
0.4666666666666686   0.8666666666666671   0.4687521401   F   F   F
0.6666666666666643   0.8666666666666671   0.4687521401   F   F   F
0.8666666666666671   0.8666666666666671   0.4687521401   F   F   F
0.9329951022788943   0.1328458795202346   0.5433200142   T   T   T
0.1342908233875006   0.1338300790115119   0.5433608107   T   T   T
0.3353864770152211   0.1328095894029595   0.5420628483   T   T   T
0.5348949730893067   0.1300865960125840   0.5410483052   T   T   T
0.7287915225551950   0.1358087530412636   0.5430081007   T   T   T
0.9344158660059543   0.3315009038152587   0.5441505589   T   T   T
0.1333681894975621   0.3346909852041077   0.5424934233   T   T   T
0.3310318322085548   0.3291743680420103   0.5394450532   T   T   T
0.5299026555830764   0.3328827507813800   0.5438621514   T   T   T
0.7301169384791075   0.3326588211765006   0.5433380412   T   T   T
0.9310340852679109   0.5325035729474497   0.5434200865   T   T   T
0.1279457938792734   0.5359523419529986   0.5412918337   T   T   T
0.3346813447272123   0.5264028871713949   0.5448670154   T   T   T
0.5302081501244543   0.5301727585296240   0.5454643803   T   T   T
0.7319024973031640   0.5304920425778625   0.5440347256   T   T   T
0.9311658058274667   0.7353907914700341   0.5438476050   T   T   T
0.1352706211425919   0.7302310562397093   0.5430690169   T   T   T
0.3331100618772109   0.7299777258459201   0.5430241708   T   T   T
0.5308776994327010   0.7324020052577378   0.5444150623   T   T   T
0.7326197491734668   0.7320620996168684   0.5446185018   T   T   T
0.9308907851843157   0.9349655805718994   0.5441384576   T   T   T
0.1336869238390293   0.9328491823777971   0.5436161468   T   T   T
0.3334262567280501   0.9350062524894215   0.5442560607   T   T   T
0.5337372709433162   0.9309585113033098   0.5433063404   T   T   T
0.7329755502557068   0.9325444580701658   0.5432102130   T   T   T
0.0009833914422759   -0.0016885052172314   0.6185432930   T   T   T
0.2019488191890102   -0.0018982511953662   0.6185272501   T   T   T
0.3997296110058651   0.0030725968381485   0.6190811845   T   T   T
0.5966114161694278   0.0022927397704707   0.6168113753   T   T   T
0.7956839101879463   0.0028982718825448   0.6187654371   T   T   T
-0.0011073942318215   0.2023686346616342   0.6185382917   T   T   T
0.2011216783080697   0.2003214373014917   0.6171041011   T   T   T
0.3999387789731769   0.2024499661415788   0.6153899340   T   T   T
0.5908360927334658   0.2030648316711021   0.6161765116   T   T   T
0.7972919839924801   0.1990801522197213   0.6179531979   T   T   T
0.0042214374338688   0.4002353826285084   0.6187398890   T   T   T
0.2081776021824948   0.3974954615215453   0.6151282468   T   T   T
0.3901106813144286   0.3836974862887811   0.6036376413   T   T   T
0.5902871444788952   0.3915294740423475   0.6227012311   T   T   T
0.7938099699070009   0.3988797249935822   0.6189535029   T   T   T
0.0005695738996637   0.5973342230238020   0.6179313624   T   T   T
0.2002621777132325   0.5922210096867575   0.6156294325   T   T   T
0.3870190504629158   0.6008891862468188   0.6213346381   T   T   T
0.5957205015800415   0.5948258003827125   0.6184607875   T   T   T
0.7981892510278149   0.5976416917575955   0.6193761082   T   T   T
0.0006282209255874   0.7976848834708951   0.6184878448   T   T   T
0.2009710334139561   0.7938641048779530   0.6187138925   T   T   T
0.3994020341647647   0.7935751717791661   0.6194542947   T   T   T
0.5967218462653487   0.7996840904576908   0.6199401090   T   T   T
0.7980350010076590   0.8012547669504250   0.6196767006   T   T   T
0.4681064997910332   0.4747586551510156   0.6585050741   T   T   T
0.4389139466995752   0.4504337276149821   0.6806112135   T   T   T
 
  0.00000000E+00  0.00000000E+00  0.00000000E+00
  0.00000000E+00  0.00000000E+00  0.00000000E+00
  0.00000000E+00  0.00000000E+00  0.00000000E+00
  0.00000000E+00  0.00000000E+00  0.00000000E+00
  0.00000000E+00  0.00000000E+00  0.00000000E+00
  0.00000000E+00  0.00000000E+00  0.00000000E+00
  0.00000000E+00  0.00000000E+00  0.00000000E+00
  0.00000000E+00  0.00000000E+00  0.00000000E+00
  0.00000000E+00  0.00000000E+00  0.00000000E+00
  0.00000000E+00  0.00000000E+00  0.00000000E+00
  0.00000000E+00  0.00000000E+00  0.00000000E+00
  0.00000000E+00  0.00000000E+00  0.00000000E+00
  0.00000000E+00  0.00000000E+00  0.00000000E+00
  0.00000000E+00  0.00000000E+00  0.00000000E+00
  0.00000000E+00  0.00000000E+00  0.00000000E+00
  0.00000000E+00  0.00000000E+00  0.00000000E+00
  0.00000000E+00  0.00000000E+00  0.00000000E+00
  0.00000000E+00  0.00000000E+00  0.00000000E+00
  0.00000000E+00  0.00000000E+00  0.00000000E+00
  0.00000000E+00  0.00000000E+00  0.00000000E+00
  0.00000000E+00  0.00000000E+00  0.00000000E+00
  0.00000000E+00  0.00000000E+00  0.00000000E+00
  0.00000000E+00  0.00000000E+00  0.00000000E+00
  0.00000000E+00  0.00000000E+00  0.00000000E+00
  0.00000000E+00  0.00000000E+00  0.00000000E+00
  0.00000000E+00  0.00000000E+00  0.00000000E+00
  0.00000000E+00  0.00000000E+00  0.00000000E+00
  0.00000000E+00  0.00000000E+00  0.00000000E+00
  0.00000000E+00  0.00000000E+00  0.00000000E+00
  0.00000000E+00  0.00000000E+00  0.00000000E+00
  0.00000000E+00  0.00000000E+00  0.00000000E+00
  0.00000000E+00  0.00000000E+00  0.00000000E+00
  0.00000000E+00  0.00000000E+00  0.00000000E+00
  0.00000000E+00  0.00000000E+00  0.00000000E+00
  0.00000000E+00  0.00000000E+00  0.00000000E+00
  0.00000000E+00  0.00000000E+00  0.00000000E+00
  0.00000000E+00  0.00000000E+00  0.00000000E+00
  0.00000000E+00  0.00000000E+00  0.00000000E+00
  0.00000000E+00  0.00000000E+00  0.00000000E+00
  0.00000000E+00  0.00000000E+00  0.00000000E+00
  0.00000000E+00  0.00000000E+00  0.00000000E+00
  0.00000000E+00  0.00000000E+00  0.00000000E+00
  0.00000000E+00  0.00000000E+00  0.00000000E+00
  0.00000000E+00  0.00000000E+00  0.00000000E+00
  0.00000000E+00  0.00000000E+00  0.00000000E+00
  0.00000000E+00  0.00000000E+00  0.00000000E+00
  0.00000000E+00  0.00000000E+00  0.00000000E+00
  0.00000000E+00  0.00000000E+00  0.00000000E+00
  0.00000000E+00  0.00000000E+00  0.00000000E+00
  0.00000000E+00  0.00000000E+00  0.00000000E+00
  0.00000000E+00  0.00000000E+00  0.00000000E+00
  0.00000000E+00  0.00000000E+00  0.00000000E+00
  0.00000000E+00  0.00000000E+00  0.00000000E+00
  0.00000000E+00  0.00000000E+00  0.00000000E+00
  0.00000000E+00  0.00000000E+00  0.00000000E+00
  0.00000000E+00  0.00000000E+00  0.00000000E+00
  0.00000000E+00  0.00000000E+00  0.00000000E+00
  0.00000000E+00  0.00000000E+00  0.00000000E+00
  0.00000000E+00  0.00000000E+00  0.00000000E+00
  0.00000000E+00  0.00000000E+00  0.00000000E+00
  0.00000000E+00  0.00000000E+00  0.00000000E+00
  0.00000000E+00  0.00000000E+00  0.00000000E+00
  0.00000000E+00  0.00000000E+00  0.00000000E+00
  0.00000000E+00  0.00000000E+00  0.00000000E+00
  0.00000000E+00  0.00000000E+00  0.00000000E+00
  0.00000000E+00  0.00000000E+00  0.00000000E+00
  0.00000000E+00  0.00000000E+00  0.00000000E+00
  0.00000000E+00  0.00000000E+00  0.00000000E+00
  0.00000000E+00  0.00000000E+00  0.00000000E+00
  0.00000000E+00  0.00000000E+00  0.00000000E+00
  0.00000000E+00  0.00000000E+00  0.00000000E+00
  0.00000000E+00  0.00000000E+00  0.00000000E+00
  0.00000000E+00  0.00000000E+00  0.00000000E+00
  0.00000000E+00  0.00000000E+00  0.00000000E+00
  0.00000000E+00  0.00000000E+00  0.00000000E+00
  0.00000000E+00  0.00000000E+00  0.00000000E+00
  0.00000000E+00  0.00000000E+00  0.00000000E+00
  0.00000000E+00  0.00000000E+00  0.00000000E+00
  0.00000000E+00  0.00000000E+00  0.00000000E+00
  0.00000000E+00  0.00000000E+00  0.00000000E+00
  0.00000000E+00  0.00000000E+00  0.00000000E+00
  0.00000000E+00  0.00000000E+00  0.00000000E+00
  0.00000000E+00  0.00000000E+00  0.00000000E+00
  0.00000000E+00  0.00000000E+00  0.00000000E+00
  0.00000000E+00  0.00000000E+00  0.00000000E+00
  0.00000000E+00  0.00000000E+00  0.00000000E+00
  0.00000000E+00  0.00000000E+00  0.00000000E+00
  0.00000000E+00  0.00000000E+00  0.00000000E+00
  0.00000000E+00  0.00000000E+00  0.00000000E+00
  0.00000000E+00  0.00000000E+00  0.00000000E+00
  0.00000000E+00  0.00000000E+00  0.00000000E+00
  0.00000000E+00  0.00000000E+00  0.00000000E+00
  0.00000000E+00  0.00000000E+00  0.00000000E+00
  0.00000000E+00  0.00000000E+00  0.00000000E+00
  0.00000000E+00  0.00000000E+00  0.00000000E+00
  0.00000000E+00  0.00000000E+00  0.00000000E+00
  0.00000000E+00  0.00000000E+00  0.00000000E+00
  0.00000000E+00  0.00000000E+00  0.00000000E+00
  0.00000000E+00  0.00000000E+00  0.00000000E+00
  0.00000000E+00  0.00000000E+00  0.00000000E+00
  0.00000000E+00  0.00000000E+00  0.00000000E+00
  0.00000000E+00  0.00000000E+00  0.00000000E+00
  0.00000000E+00  0.00000000E+00  0.00000000E+00
  0.00000000E+00  0.00000000E+00  0.00000000E+00
  0.00000000E+00  0.00000000E+00  0.00000000E+00
  0.00000000E+00  0.00000000E+00  0.00000000E+00
  0.00000000E+00  0.00000000E+00  0.00000000E+00
  0.00000000E+00  0.00000000E+00  0.00000000E+00
  0.00000000E+00  0.00000000E+00  0.00000000E+00
  0.00000000E+00  0.00000000E+00  0.00000000E+00
  0.00000000E+00  0.00000000E+00  0.00000000E+00
  0.00000000E+00  0.00000000E+00  0.00000000E+00
  0.00000000E+00  0.00000000E+00  0.00000000E+00
  0.00000000E+00  0.00000000E+00  0.00000000E+00
  0.00000000E+00  0.00000000E+00  0.00000000E+00
  0.00000000E+00  0.00000000E+00  0.00000000E+00
  0.00000000E+00  0.00000000E+00  0.00000000E+00
  0.00000000E+00  0.00000000E+00  0.00000000E+00
  0.00000000E+00  0.00000000E+00  0.00000000E+00
  0.00000000E+00  0.00000000E+00  0.00000000E+00
  0.00000000E+00  0.00000000E+00  0.00000000E+00
  0.00000000E+00  0.00000000E+00  0.00000000E+00
  0.00000000E+00  0.00000000E+00  0.00000000E+00
  0.00000000E+00  0.00000000E+00  0.00000000E+00
  0.00000000E+00  0.00000000E+00  0.00000000E+00
  0.00000000E+00  0.00000000E+00  0.00000000E+00
  0.00000000E+00  0.00000000E+00  0.00000000E+00
