Al Fe Al  C  H  C  H                    
   1.00000000000000     
    14.3189123190275875    0.0000000000000000    0.0000000000000000
     7.1594561595137938   12.4005418228398376    0.0000000000000000
   0.0000000000   0.0000000000   33.8064041279
   Al   Fe   Al   C    H    C    H 
   112     1    12     2     5     1     2
Selective dynamics
Direct
0.9333333333333300   0.1333333333333329   0.2958019422   F   F   F
0.1333333333333329   0.1333333333333329   0.2958019422   F   F   F
0.3333333333333357   0.1333333333333329   0.2958019422   F   F   F
0.5333333333333314   0.1333333333333329   0.2958019422   F   F   F
0.7333333333333343   0.1333333333333329   0.2958019422   F   F   F
0.9333333333333300   0.3333333333333357   0.2958019422   F   F   F
0.1333333333333329   0.3333333333333357   0.2958019422   F   F   F
0.3333333333333357   0.3333333333333357   0.2958019422   F   F   F
0.5333333333333314   0.3333333333333357   0.2958019422   F   F   F
0.7333333333333343   0.3333333333333357   0.2958019422   F   F   F
0.9333333333333300   0.5333333333333314   0.2958019422   F   F   F
0.1333333333333329   0.5333333333333314   0.2958019422   F   F   F
0.3333333333333357   0.5333333333333314   0.2958019422   F   F   F
0.5333333333333314   0.5333333333333314   0.2958019422   F   F   F
0.7333333333333343   0.5333333333333314   0.2958019422   F   F   F
0.9333333333333300   0.7333333333333343   0.2958019422   F   F   F
0.1333333333333329   0.7333333333333343   0.2958019422   F   F   F
0.3333333333333357   0.7333333333333343   0.2958019422   F   F   F
0.5333333333333314   0.7333333333333343   0.2958019422   F   F   F
0.7333333333333343   0.7333333333333343   0.2958019422   F   F   F
0.9333333333333300   0.9333333333333371   0.2958019422   F   F   F
0.1333333333333329   0.9333333333333371   0.2958019422   F   F   F
0.3333333333333357   0.9333333333333371   0.2958019422   F   F   F
0.5333333333333314   0.9333333333333371   0.2958019422   F   F   F
0.7333333333333343   0.9333333333333371   0.2958019422   F   F   F
0.0000000000000000   0.0000000000000000   0.3649683813   F   F   F
0.2000000000000028   0.0000000000000000   0.3649683813   F   F   F
0.3999999999999986   0.0000000000000000   0.3649683813   F   F   F
0.6000000000000014   0.0000000000000000   0.3649683813   F   F   F
0.7999999999999972   0.0000000000000000   0.3649683813   F   F   F
0.0000000000000000   0.2000000000000028   0.3649683813   F   F   F
0.2000000000000028   0.2000000000000028   0.3649683813   F   F   F
0.3999999999999986   0.2000000000000028   0.3649683813   F   F   F
0.6000000000000014   0.2000000000000028   0.3649683813   F   F   F
0.7999999999999972   0.2000000000000028   0.3649683813   F   F   F
0.0000000000000000   0.3999999999999986   0.3649683813   F   F   F
0.2000000000000028   0.3999999999999986   0.3649683813   F   F   F
0.3999999999999986   0.3999999999999986   0.3649683813   F   F   F
0.6000000000000014   0.3999999999999986   0.3649683813   F   F   F
0.7999999999999972   0.3999999999999986   0.3649683813   F   F   F
0.0000000000000000   0.6000000000000014   0.3649683813   F   F   F
0.2000000000000028   0.6000000000000014   0.3649683813   F   F   F
0.3999999999999986   0.6000000000000014   0.3649683813   F   F   F
0.6000000000000014   0.6000000000000014   0.3649683813   F   F   F
0.7999999999999972   0.6000000000000014   0.3649683813   F   F   F
0.0000000000000000   0.7999999999999972   0.3649683813   F   F   F
0.2000000000000028   0.7999999999999972   0.3649683813   F   F   F
0.3999999999999986   0.7999999999999972   0.3649683813   F   F   F
0.6000000000000014   0.7999999999999972   0.3649683813   F   F   F
0.7999999999999972   0.7999999999999972   0.3649683813   F   F   F
0.0666666666666700   0.0666666666666700   0.4341348203   F   F   F
0.2666666666666657   0.0666666666666700   0.4341348203   F   F   F
0.4666666666666686   0.0666666666666700   0.4341348203   F   F   F
0.6666666666666643   0.0666666666666700   0.4341348203   F   F   F
0.8666666666666671   0.0666666666666700   0.4341348203   F   F   F
0.0666666666666700   0.2666666666666657   0.4341348203   F   F   F
0.2666666666666657   0.2666666666666657   0.4341348203   F   F   F
0.4666666666666686   0.2666666666666657   0.4341348203   F   F   F
0.6666666666666643   0.2666666666666657   0.4341348203   F   F   F
0.8666666666666671   0.2666666666666657   0.4341348203   F   F   F
0.0666666666666700   0.4666666666666686   0.4341348203   F   F   F
0.2666666666666657   0.4666666666666686   0.4341348203   F   F   F
0.4666666666666686   0.4666666666666686   0.4341348203   F   F   F
0.6666666666666643   0.4666666666666686   0.4341348203   F   F   F
0.8666666666666671   0.4666666666666686   0.4341348203   F   F   F
0.0666666666666700   0.6666666666666643   0.4341348203   F   F   F
0.2666666666666657   0.6666666666666643   0.4341348203   F   F   F
0.4666666666666686   0.6666666666666643   0.4341348203   F   F   F
0.6666666666666643   0.6666666666666643   0.4341348203   F   F   F
0.8666666666666671   0.6666666666666643   0.4341348203   F   F   F
0.0666666666666700   0.8666666666666671   0.4341348203   F   F   F
0.2666666666666657   0.8666666666666671   0.4341348203   F   F   F
0.4666666666666686   0.8666666666666671   0.4341348203   F   F   F
0.6666666666666643   0.8666666666666671   0.4341348203   F   F   F
0.8666666666666671   0.8666666666666671   0.4341348203   F   F   F
0.9308784162801582   0.1342063288535907   0.5033093875   T   T   T
0.1349454239246198   0.1339201351546001   0.5032823135   T   T   T
0.3354744198115834   0.1346780034438218   0.5036501288   T   T   T
0.5351196660864344   0.1302739379448088   0.5051071429   T   T   T
0.7296230118017062   0.1349866406322074   0.5036982560   T   T   T
0.9341075677482397   0.3314928156367116   0.5033574536   T   T   T
0.1356849877978386   0.3345865890139247   0.5031289509   T   T   T
0.3393150426994722   0.3314567485566147   0.5041240175   T   T   T
0.5294224947777530   0.3331256989232635   0.5041060696   T   T   T
0.7302309264994651   0.3342003806812651   0.5033806816   T   T   T
0.9339747162409646   0.5315112009127203   0.5030106778   T   T   T
0.1333430025813045   0.5354843994618895   0.5019361919   T   T   T
0.3276450371529593   0.5375240374756726   0.5017648649   T   T   T
0.5331757059949349   0.5342601297867886   0.5013088152   T   T   T
0.7348417174927570   0.5316682382786386   0.5031083766   T   T   T
0.9335339613035915   0.7320475657302480   0.5027374317   T   T   T
0.1326783805319951   0.7331481013993565   0.5028098177   T   T   T
0.3336363734113008   0.7343546816408663   0.5024381854   T   T   T
0.5343410786509279   0.7323569829879624   0.5028589709   T   T   T
0.7346124868482473   0.7310493937683570   0.5031906814   T   T   T
0.9333802011463941   0.9337802187081463   0.5029968187   T   T   T
0.1330439524090891   0.9337149494764077   0.5028505813   T   T   T
0.3331847815934831   0.9333888298845286   0.5032253439   T   T   T
0.5338793266615972   0.9302546735864115   0.5023498688   T   T   T
0.7360200067042391   0.9302891802084038   0.5023389779   T   T   T
0.9988613269998610   -0.0001589178003174   0.5724166584   T   T   T
0.2013441439639959   0.9983789351085913   0.5725400674   T   T   T
0.4027527502232422   0.9972663179853258   0.5721896078   T   T   T
0.6067826009430186   0.9868025691177199   0.5700530017   T   T   T
0.8001214940221665   0.9970336654541683   0.5722199829   T   T   T
0.0007153979885399   0.1982478928590848   0.5729703942   T   T   T
0.2015444160301941   0.2019755535544580   0.5728654996   T   T   T
0.3968308026677215   0.2037441059380982   0.5772835400   T   T   T
0.5964667319129344   0.2062264379964077   0.5768949280   T   T   T
0.7958528789305676   0.2017055745900364   0.5730265912   T   T   T
0.0024626959268108   0.3976229292344389   0.5722926635   T   T   T
0.2115581766412460   0.4030161331822320   0.5690202022   T   T   T
0.3893387233801754   0.4224181712192520   0.5570496360   T   T   T
0.5863791244280794   0.4031753974536247   0.5704097138   T   T   T
0.7983799941238104   0.3984755614010546   0.5724379208   T   T   T
0.0064911141890007   0.5955743271229238   0.5711310422   T   T   T
0.2144250256614105   0.5883903789531258   0.5899721860   T   T   T
0.3976196609026368   0.5954851246250122   0.5687615299   T   T   T
0.5983457739061051   0.5959008006497153   0.5716519693   T   T   T
0.8029889286939283   0.5959479606638015   0.5732507054   T   T   T
0.0033586117522646   0.7957224617795897   0.5711448368   T   T   T
0.2007682992448523   0.7985117206014798   0.5714552545   T   T   T
0.4011659250078121   0.7969203392176737   0.5724337944   T   T   T
0.6021659164696245   0.7931953739822486   0.5729748292   T   T   T
0.8056492933572919   0.7931365781499531   0.5729107833   T   T   T
0.1115761489422262   0.6769365081835974   0.6719782250   T   T   T
0.2114361810898220   0.5911044643488816   0.6501245558   T   T   T
0.2828254537917064   0.5959735505559395   0.6587997713   T   T   T
0.1216738228555599   0.6684160270397321   0.7041980578   T   T   T
0.2284767347379637   0.5100940965295262   0.6588023765   T   T   T
0.0396196026514892   0.6720553645436301   0.6646590607   T   T   T
0.0940249842806378   0.7586737080726952   0.6645853909   T   T   T
0.4913957405888947   0.2159696009574339   0.6180910076   T   T   T
0.5256544340482858   0.1495319224830918   0.6394479428   T   T   T
0.4522796303207409   0.2929913226427319   0.6340101988   T   T   T
 
  0.00000000E+00  0.00000000E+00  0.00000000E+00
  0.00000000E+00  0.00000000E+00  0.00000000E+00
  0.00000000E+00  0.00000000E+00  0.00000000E+00
  0.00000000E+00  0.00000000E+00  0.00000000E+00
  0.00000000E+00  0.00000000E+00  0.00000000E+00
  0.00000000E+00  0.00000000E+00  0.00000000E+00
  0.00000000E+00  0.00000000E+00  0.00000000E+00
  0.00000000E+00  0.00000000E+00  0.00000000E+00
  0.00000000E+00  0.00000000E+00  0.00000000E+00
  0.00000000E+00  0.00000000E+00  0.00000000E+00
  0.00000000E+00  0.00000000E+00  0.00000000E+00
  0.00000000E+00  0.00000000E+00  0.00000000E+00
  0.00000000E+00  0.00000000E+00  0.00000000E+00
  0.00000000E+00  0.00000000E+00  0.00000000E+00
  0.00000000E+00  0.00000000E+00  0.00000000E+00
  0.00000000E+00  0.00000000E+00  0.00000000E+00
  0.00000000E+00  0.00000000E+00  0.00000000E+00
  0.00000000E+00  0.00000000E+00  0.00000000E+00
  0.00000000E+00  0.00000000E+00  0.00000000E+00
  0.00000000E+00  0.00000000E+00  0.00000000E+00
  0.00000000E+00  0.00000000E+00  0.00000000E+00
  0.00000000E+00  0.00000000E+00  0.00000000E+00
  0.00000000E+00  0.00000000E+00  0.00000000E+00
  0.00000000E+00  0.00000000E+00  0.00000000E+00
  0.00000000E+00  0.00000000E+00  0.00000000E+00
  0.00000000E+00  0.00000000E+00  0.00000000E+00
  0.00000000E+00  0.00000000E+00  0.00000000E+00
  0.00000000E+00  0.00000000E+00  0.00000000E+00
  0.00000000E+00  0.00000000E+00  0.00000000E+00
  0.00000000E+00  0.00000000E+00  0.00000000E+00
  0.00000000E+00  0.00000000E+00  0.00000000E+00
  0.00000000E+00  0.00000000E+00  0.00000000E+00
  0.00000000E+00  0.00000000E+00  0.00000000E+00
  0.00000000E+00  0.00000000E+00  0.00000000E+00
  0.00000000E+00  0.00000000E+00  0.00000000E+00
  0.00000000E+00  0.00000000E+00  0.00000000E+00
  0.00000000E+00  0.00000000E+00  0.00000000E+00
  0.00000000E+00  0.00000000E+00  0.00000000E+00
  0.00000000E+00  0.00000000E+00  0.00000000E+00
  0.00000000E+00  0.00000000E+00  0.00000000E+00
  0.00000000E+00  0.00000000E+00  0.00000000E+00
  0.00000000E+00  0.00000000E+00  0.00000000E+00
  0.00000000E+00  0.00000000E+00  0.00000000E+00
  0.00000000E+00  0.00000000E+00  0.00000000E+00
  0.00000000E+00  0.00000000E+00  0.00000000E+00
  0.00000000E+00  0.00000000E+00  0.00000000E+00
  0.00000000E+00  0.00000000E+00  0.00000000E+00
  0.00000000E+00  0.00000000E+00  0.00000000E+00
  0.00000000E+00  0.00000000E+00  0.00000000E+00
  0.00000000E+00  0.00000000E+00  0.00000000E+00
  0.00000000E+00  0.00000000E+00  0.00000000E+00
  0.00000000E+00  0.00000000E+00  0.00000000E+00
  0.00000000E+00  0.00000000E+00  0.00000000E+00
  0.00000000E+00  0.00000000E+00  0.00000000E+00
  0.00000000E+00  0.00000000E+00  0.00000000E+00
  0.00000000E+00  0.00000000E+00  0.00000000E+00
  0.00000000E+00  0.00000000E+00  0.00000000E+00
  0.00000000E+00  0.00000000E+00  0.00000000E+00
  0.00000000E+00  0.00000000E+00  0.00000000E+00
  0.00000000E+00  0.00000000E+00  0.00000000E+00
  0.00000000E+00  0.00000000E+00  0.00000000E+00
  0.00000000E+00  0.00000000E+00  0.00000000E+00
  0.00000000E+00  0.00000000E+00  0.00000000E+00
  0.00000000E+00  0.00000000E+00  0.00000000E+00
  0.00000000E+00  0.00000000E+00  0.00000000E+00
  0.00000000E+00  0.00000000E+00  0.00000000E+00
  0.00000000E+00  0.00000000E+00  0.00000000E+00
  0.00000000E+00  0.00000000E+00  0.00000000E+00
  0.00000000E+00  0.00000000E+00  0.00000000E+00
  0.00000000E+00  0.00000000E+00  0.00000000E+00
  0.00000000E+00  0.00000000E+00  0.00000000E+00
  0.00000000E+00  0.00000000E+00  0.00000000E+00
  0.00000000E+00  0.00000000E+00  0.00000000E+00
  0.00000000E+00  0.00000000E+00  0.00000000E+00
  0.00000000E+00  0.00000000E+00  0.00000000E+00
  0.00000000E+00  0.00000000E+00  0.00000000E+00
  0.00000000E+00  0.00000000E+00  0.00000000E+00
  0.00000000E+00  0.00000000E+00  0.00000000E+00
  0.00000000E+00  0.00000000E+00  0.00000000E+00
  0.00000000E+00  0.00000000E+00  0.00000000E+00
  0.00000000E+00  0.00000000E+00  0.00000000E+00
  0.00000000E+00  0.00000000E+00  0.00000000E+00
  0.00000000E+00  0.00000000E+00  0.00000000E+00
  0.00000000E+00  0.00000000E+00  0.00000000E+00
  0.00000000E+00  0.00000000E+00  0.00000000E+00
  0.00000000E+00  0.00000000E+00  0.00000000E+00
  0.00000000E+00  0.00000000E+00  0.00000000E+00
  0.00000000E+00  0.00000000E+00  0.00000000E+00
  0.00000000E+00  0.00000000E+00  0.00000000E+00
  0.00000000E+00  0.00000000E+00  0.00000000E+00
  0.00000000E+00  0.00000000E+00  0.00000000E+00
  0.00000000E+00  0.00000000E+00  0.00000000E+00
  0.00000000E+00  0.00000000E+00  0.00000000E+00
  0.00000000E+00  0.00000000E+00  0.00000000E+00
  0.00000000E+00  0.00000000E+00  0.00000000E+00
  0.00000000E+00  0.00000000E+00  0.00000000E+00
  0.00000000E+00  0.00000000E+00  0.00000000E+00
  0.00000000E+00  0.00000000E+00  0.00000000E+00
  0.00000000E+00  0.00000000E+00  0.00000000E+00
  0.00000000E+00  0.00000000E+00  0.00000000E+00
  0.00000000E+00  0.00000000E+00  0.00000000E+00
  0.00000000E+00  0.00000000E+00  0.00000000E+00
  0.00000000E+00  0.00000000E+00  0.00000000E+00
  0.00000000E+00  0.00000000E+00  0.00000000E+00
  0.00000000E+00  0.00000000E+00  0.00000000E+00
  0.00000000E+00  0.00000000E+00  0.00000000E+00
  0.00000000E+00  0.00000000E+00  0.00000000E+00
  0.00000000E+00  0.00000000E+00  0.00000000E+00
  0.00000000E+00  0.00000000E+00  0.00000000E+00
  0.00000000E+00  0.00000000E+00  0.00000000E+00
  0.00000000E+00  0.00000000E+00  0.00000000E+00
  0.00000000E+00  0.00000000E+00  0.00000000E+00
  0.00000000E+00  0.00000000E+00  0.00000000E+00
  0.00000000E+00  0.00000000E+00  0.00000000E+00
  0.00000000E+00  0.00000000E+00  0.00000000E+00
  0.00000000E+00  0.00000000E+00  0.00000000E+00
  0.00000000E+00  0.00000000E+00  0.00000000E+00
  0.00000000E+00  0.00000000E+00  0.00000000E+00
  0.00000000E+00  0.00000000E+00  0.00000000E+00
  0.00000000E+00  0.00000000E+00  0.00000000E+00
  0.00000000E+00  0.00000000E+00  0.00000000E+00
  0.00000000E+00  0.00000000E+00  0.00000000E+00
  0.00000000E+00  0.00000000E+00  0.00000000E+00
  0.00000000E+00  0.00000000E+00  0.00000000E+00
  0.00000000E+00  0.00000000E+00  0.00000000E+00
  0.00000000E+00  0.00000000E+00  0.00000000E+00
  0.00000000E+00  0.00000000E+00  0.00000000E+00
  0.00000000E+00  0.00000000E+00  0.00000000E+00
  0.00000000E+00  0.00000000E+00  0.00000000E+00
  0.00000000E+00  0.00000000E+00  0.00000000E+00
  0.00000000E+00  0.00000000E+00  0.00000000E+00
  0.00000000E+00  0.00000000E+00  0.00000000E+00
  0.00000000E+00  0.00000000E+00  0.00000000E+00
  0.00000000E+00  0.00000000E+00  0.00000000E+00
  0.00000000E+00  0.00000000E+00  0.00000000E+00
