Al Fe  O  H 
 1.0000000000000000
    14.3189123190275875    0.0000000000000000    0.0000000000000000
     7.1594561595137938   12.4005418228398376    0.0000000000000000
     0.0000000000000000    0.0000000000000000   45.3530743608719362
 Al  Fe  O   H  
 122   3   1   1
Selective dynamics
Cartesian
 14.8630292790529790  1.7691441664196890 18.0160721807806929   F   F   F
  3.4078994238309499  1.7691441664196890 18.0160721807806929   F   F   F
  6.2716818876365092  1.7691441664196890 18.0160721807806929   F   F   F
  9.1354643514419642  1.7691441664196890 18.0160721807806929   F   F   F
 11.9992468152475240  1.7691441664196890 18.0160721807806929   F   F   F
 16.2949205109557589  4.2492525309876923 18.0160721807806929   F   F   F
  4.8397906557337294  4.2492525309876923 18.0160721807806929   F   F   F
  7.7035731195392891  4.2492525309876923 18.0160721807806929   F   F   F
 10.5673555833447441  4.2492525309876923 18.0160721807806929   F   F   F
 13.4311380471503039  4.2492525309876923 18.0160721807806929   F   F   F
 17.7268117428584873  6.7293608955556063 18.0160721807806929   F   F   F
  6.2716818876364577  6.7293608955556063 18.0160721807806929   F   F   F
  9.1354643514420175  6.7293608955556063 18.0160721807806929   F   F   F
 11.9992468152474707  6.7293608955556063 18.0160721807806929   F   F   F
 14.8630292790530305  6.7293608955556063 18.0160721807806929   F   F   F
 19.1587029747612654  9.2094692601236101 18.0160721807806929   F   F   F
  7.7035731195392358  9.2094692601236101 18.0160721807806929   F   F   F
 10.5673555833447956  9.2094692601236101 18.0160721807806929   F   F   F
 13.4311380471502506  9.2094692601236101 18.0160721807806929   F   F   F
 16.2949205109558122  9.2094692601236101 18.0160721807806929   F   F   F
 20.5905942066640435 11.6895776246916121 18.0160721807806929   F   F   F
  9.1354643514420157 11.6895776246916121 18.0160721807806929   F   F   F
 11.9992468152475737 11.6895776246916121 18.0160721807806929   F   F   F
 14.8630292790530305 11.6895776246916121 18.0160721807806929   F   F   F
 17.7268117428585903 11.6895776246916121 18.0160721807806929   F   F   F
  0.5441169600254440  0.1157385900410506 20.3543407709988671   F   F   F
  3.4078994238310019  0.1157385900410506 20.3543407709988671   F   F   F
  6.2716818876364568  0.1157385900410506 20.3543407709988671   F   F   F
  9.1354643514420157  0.1157385900410506 20.3543407709988671   F   F   F
 11.9992468152474725  0.1157385900410506 20.3543407709988671   F   F   F
  1.9760081919282229  2.5958469546090530 20.3543407709988671   F   F   F
  4.8397906557337809  2.5958469546090530 20.3543407709988671   F   F   F
  7.7035731195392358  2.5958469546090530 20.3543407709988671   F   F   F
 10.5673555833447956  2.5958469546090530 20.3543407709988671   F   F   F
 13.4311380471502524  2.5958469546090530 20.3543407709988671   F   F   F
  3.4078994238309508  5.0759553191769671 20.3543407709988671   F   F   F
  6.2716818876365084  5.0759553191769671 20.3543407709988671   F   F   F
  9.1354643514419642  5.0759553191769671 20.3543407709988671   F   F   F
 11.9992468152475222  5.0759553191769671 20.3543407709988671   F   F   F
 14.8630292790529790  5.0759553191769671 20.3543407709988671   F   F   F
  4.8397906557337302  7.5560636837449699 20.3543407709988671   F   F   F
  7.7035731195392874  7.5560636837449699 20.3543407709988671   F   F   F
 10.5673555833447423  7.5560636837449699 20.3543407709988671   F   F   F
 13.4311380471503021  7.5560636837449699 20.3543407709988671   F   F   F
 16.2949205109557589  7.5560636837449699 20.3543407709988671   F   F   F
  6.2716818876364586 10.0361720483128849 20.3543407709988671   F   F   F
  9.1354643514420157 10.0361720483128849 20.3543407709988671   F   F   F
 11.9992468152474707 10.0361720483128849 20.3543407709988671   F   F   F
 14.8630292790530305 10.0361720483128849 20.3543407709988671   F   F   F
 17.7268117428584873 10.0361720483128849 20.3543407709988671   F   F   F
  1.9760081919282722  0.9424413782304132 22.6926093612167215   F   F   F
  4.8397906557337294  0.9424413782304132 22.6926093612167215   F   F   F
  7.7035731195392874  0.9424413782304132 22.6926093612167215   F   F   F
 10.5673555833447441  0.9424413782304132 22.6926093612167215   F   F   F
 13.4311380471503021  0.9424413782304132 22.6926093612167215   F   F   F
  3.4078994238310005  3.4225497427983282 22.6926093612167215   F   F   F
  6.2716818876364577  3.4225497427983282 22.6926093612167215   F   F   F
  9.1354643514420157  3.4225497427983282 22.6926093612167215   F   F   F
 11.9992468152474725  3.4225497427983282 22.6926093612167215   F   F   F
 14.8630292790530305  3.4225497427983282 22.6926093612167215   F   F   F
  4.8397906557337791  5.9026581073663316 22.6926093612167215   F   F   F
  7.7035731195392376  5.9026581073663316 22.6926093612167215   F   F   F
 10.5673555833447956  5.9026581073663316 22.6926093612167215   F   F   F
 13.4311380471502524  5.9026581073663316 22.6926093612167215   F   F   F
 16.2949205109558086  5.9026581073663316 22.6926093612167215   F   F   F
  6.2716818876365084  8.3827664719342465 22.6926093612167215   F   F   F
  9.1354643514419660  8.3827664719342465 22.6926093612167215   F   F   F
 11.9992468152475240  8.3827664719342465 22.6926093612167215   F   F   F
 14.8630292790529808  8.3827664719342465 22.6926093612167215   F   F   F
 17.7268117428585370  8.3827664719342465 22.6926093612167215   F   F   F
  7.7035731195392874 10.8628748365022485 22.6926093612167215   F   F   F
 10.5673555833447459 10.8628748365022485 22.6926093612167215   F   F   F
 13.4311380471503021 10.8628748365022485 22.6926093612167215   F   F   F
 16.2949205109557589 10.8628748365022485 22.6926093612167215   F   F   F
 19.1587029747613187 10.8628748365022485 22.6926093612167215   F   F   F
 14.8634075500798151  1.7685738470697236 25.0233576867454310   F   F   F
  3.4274688924942147  1.7775073535208548 25.0241442048053244   F   F   F
  6.2895099027390113  1.7454276170675169 24.9872876024769290   F   F   F
  9.1169351341322411  1.7455551054764047 24.9872200089810796   F   F   F
 11.9795038106824556  1.7778818024724095 25.0240328986382465   F   F   F
 16.3118586077744752  4.2612411005044226 25.0240599630183773   F   F   F
  4.8601796433981761  4.2604209559032018 24.9835096407905546   F   F   F
  7.7027148195259407  4.2661660257459015 25.0377852618769552   F   F   F
 10.5458252265398400  4.2605018099103713 24.9834671269619903   F   F   F
 13.4132812732290958  4.2612296211776979 25.0241238203239398   F   F   F
 17.7154917308171953  6.7553017359995353 24.9871768687587732   F   F   F
  6.2861406796314014  6.7200635165379863 25.0375341511573879   F   F   F
  9.1193014149978762  6.7197697329939823 25.0376615470285522   F   F   F
 12.0097057665606837  6.7550921137471613 24.9870266559836303   F   F   F
 14.8629558461386857  6.7354883791030300 25.0195918436476603   F   F   F
 19.1292528308080421  9.2046275169249494 24.9868742915953845   F   F   F
  7.7032848023058165  9.1849228327144523 24.9831410957509483   F   F   F
 10.5959360389369053  9.2043544813716895 24.9869112852177366   F   F   F
 13.4469310429638931  9.2186400596546552 25.0173393613386779   F   F   F
 16.2786605479042201  9.2187006757383116 25.0173728204335362   F   F   F
 20.5891556370185818 11.6671412936516514 25.0242162881847712   F   F   F
  9.1387452341816626 11.6670282700746668 25.0242984286884607   F   F   F
 12.0053094376623246 11.6865977262808176 25.0205172678416368   F   F   F
 14.8638877790840240 11.6702580371898677 25.0177804318056189   F   F   F
 17.7225135020520526 11.6869754742440790 25.0204917923826322   F   F   F
  0.5443185276031942  0.0860445709778906 27.3607520879167296   F   F   F
  3.4138990865500749  0.1110772413780745 27.3799305952779086   F   F   F
  6.2733647656578411  0.1510831850444195 27.3615261180754139   F   F   F
  9.1322868799530887  0.1511112797098901 27.3614602983966400   F   F   F
 11.9925329710762654  0.1101069803317031 27.3794116245642805   F   F   F
  1.9990357314446032  2.6077823373174622 27.3617982044947610   F   F   F
  4.9189327423616813  2.6861929200274162 27.3248178596263358   F   F   F
  7.7029375173940346  2.7226726744955760 27.2928062688811401   F   F   F
 10.4864863129681467  2.6852727527293587 27.3248803032610397   F   F   F
 13.4071256374199255  2.6071360577559175 27.3606626017262577   F   F   F
  3.5254942209743745  5.0970340545029265 27.3250471361846081   F   F   F
 11.8791957198841143  5.0968495136583361 27.3248326067773561   F   F   F
 14.8615493802333845  5.0814754680205159 27.3795814879029678   F   F   F
  4.9486996741418947  7.4905603057225507 27.2924810221326517   F   F   F
 10.4564111357729956  7.4902749333560914 27.2923097380221478   F   F   F
 13.3968753603634561  7.5381636404857808 27.3602203501016241   F   F   F
 16.3271064628302227  7.5377132066916772 27.3609388653808381   F   F   F
  6.3096688140366952  9.9202603908047706 27.3244429031282117   F   F   F
  9.0955013545014634  9.9200561259392437 27.3244602991345644   F   F   F
 11.9673432644754385 10.0137384770925202 27.3605823869427027   F   F   F
 14.8628215992461499 10.0351217062922355 27.3987463941341076   F   F   F
 17.7571851687199960 10.0133715294968866 27.3611850955814901   F   F   F
  6.1748280325768974  5.0205483696468445 27.0097467036499026   T   T   T
  9.2303724355518373  5.0188474668242966 27.0095402286938757   T   T   T
  7.7024648293977993  7.6671956244207644 27.0086843384080559   T   T   T
  7.7037851151371353  5.9036729733015809 28.1629665092303050   T   T   T
  7.7051193940223133  5.9061595297090559 29.1293531114404374   T   T   T
