Al Fe  C  O  H                          
   1.00000000000000     
    14.3189123190275875    0.0000000000000000    0.0000000000000000
     7.1594561595137938   12.4005418228398376    0.0000000000000000
   0.0000000000   0.0000000000   32.2125106555
   Al   Fe   C    O    H 
   123     2     1     1     1
Selective dynamics
Direct
0.9683139756165744   0.1682146331710470   0.3104383917   F   F   F
0.1683139756165772   0.1682146331710470   0.3104383917   F   F   F
0.3683139756165801   0.1682146331710470   0.3104383917   F   F   F
0.5683139756165758   0.1682146331710470   0.3104383917   F   F   F
0.7683139756165787   0.1682146331710470   0.3104383917   F   F   F
0.9683139756165744   0.3682146331710499   0.3104383917   F   F   F
0.1683139756165772   0.3682146331710499   0.3104383917   F   F   F
0.3683139756165801   0.3682146331710499   0.3104383917   F   F   F
0.5683139756165758   0.3682146331710499   0.3104383917   F   F   F
0.7683139756165787   0.3682146331710499   0.3104383917   F   F   F
0.9683139756165744   0.5682146331710456   0.3104383917   F   F   F
0.1683139756165772   0.5682146331710456   0.3104383917   F   F   F
0.3683139756165801   0.5682146331710456   0.3104383917   F   F   F
0.5683139756165758   0.5682146331710456   0.3104383917   F   F   F
0.7683139756165787   0.5682146331710456   0.3104383917   F   F   F
0.9683139756165744   0.7682146331710484   0.3104383917   F   F   F
0.1683139756165772   0.7682146331710484   0.3104383917   F   F   F
0.3683139756165801   0.7682146331710484   0.3104383917   F   F   F
0.5683139756165758   0.7682146331710484   0.3104383917   F   F   F
0.7683139756165787   0.7682146331710484   0.3104383917   F   F   F
0.9683139756165744   0.9682146331710513   0.3104383917   F   F   F
0.1683139756165772   0.9682146331710513   0.3104383917   F   F   F
0.3683139756165801   0.9682146331710513   0.3104383917   F   F   F
0.5683139756165758   0.9682146331710513   0.3104383917   F   F   F
0.7683139756165787   0.9682146331710513   0.3104383917   F   F   F
0.0349806422832444   0.0348812998377142   0.3830272257   F   F   F
0.2349806422832472   0.0348812998377142   0.3830272257   F   F   F
0.4349806422832430   0.0348812998377142   0.3830272257   F   F   F
0.6349806422832458   0.0348812998377142   0.3830272257   F   F   F
0.8349806422832415   0.0348812998377142   0.3830272257   F   F   F
0.0349806422832444   0.2348812998377170   0.3830272257   F   F   F
0.2349806422832472   0.2348812998377170   0.3830272257   F   F   F
0.4349806422832430   0.2348812998377170   0.3830272257   F   F   F
0.6349806422832458   0.2348812998377170   0.3830272257   F   F   F
0.8349806422832415   0.2348812998377170   0.3830272257   F   F   F
0.0349806422832444   0.4348812998377127   0.3830272257   F   F   F
0.2349806422832472   0.4348812998377127   0.3830272257   F   F   F
0.4349806422832430   0.4348812998377127   0.3830272257   F   F   F
0.6349806422832458   0.4348812998377127   0.3830272257   F   F   F
0.8349806422832415   0.4348812998377127   0.3830272257   F   F   F
0.0349806422832444   0.6348812998377156   0.3830272257   F   F   F
0.2349806422832472   0.6348812998377156   0.3830272257   F   F   F
0.4349806422832430   0.6348812998377156   0.3830272257   F   F   F
0.6349806422832458   0.6348812998377156   0.3830272257   F   F   F
0.8349806422832415   0.6348812998377156   0.3830272257   F   F   F
0.0349806422832444   0.8348812998377113   0.3830272257   F   F   F
0.2349806422832472   0.8348812998377113   0.3830272257   F   F   F
0.4349806422832430   0.8348812998377113   0.3830272257   F   F   F
0.6349806422832458   0.8348812998377113   0.3830272257   F   F   F
0.8349806422832415   0.8348812998377113   0.3830272257   F   F   F
0.1016473089499144   0.1015479665043841   0.4556160597   F   F   F
0.3016473089499101   0.1015479665043841   0.4556160597   F   F   F
0.5016473089499129   0.1015479665043841   0.4556160597   F   F   F
0.7016473089499087   0.1015479665043841   0.4556160597   F   F   F
0.9016473089499115   0.1015479665043841   0.4556160597   F   F   F
0.1016473089499144   0.3015479665043799   0.4556160597   F   F   F
0.3016473089499101   0.3015479665043799   0.4556160597   F   F   F
0.5016473089499129   0.3015479665043799   0.4556160597   F   F   F
0.7016473089499087   0.3015479665043799   0.4556160597   F   F   F
0.9016473089499115   0.3015479665043799   0.4556160597   F   F   F
0.1016473089499144   0.5015479665043827   0.4556160597   F   F   F
0.3016473089499101   0.5015479665043827   0.4556160597   F   F   F
0.5016473089499129   0.5015479665043827   0.4556160597   F   F   F
0.7016473089499087   0.5015479665043827   0.4556160597   F   F   F
0.9016473089499115   0.5015479665043827   0.4556160597   F   F   F
0.1016473089499144   0.7015479665043785   0.4556160597   F   F   F
0.3016473089499101   0.7015479665043785   0.4556160597   F   F   F
0.5016473089499129   0.7015479665043785   0.4556160597   F   F   F
0.7016473089499087   0.7015479665043785   0.4556160597   F   F   F
0.9016473089499115   0.7015479665043785   0.4556160597   F   F   F
0.1016473089499144   0.9015479665043813   0.4556160597   F   F   F
0.3016473089499101   0.9015479665043813   0.4556160597   F   F   F
0.5016473089499129   0.9015479665043813   0.4556160597   F   F   F
0.7016473089499087   0.9015479665043813   0.4556160597   F   F   F
0.9016473089499115   0.9015479665043813   0.4556160597   F   F   F
0.9677117135566556   0.1687544966613197   0.5281474495   T   T   T
0.1699258624833993   0.1674988683959353   0.5282393423   T   T   T
0.3698995876014259   0.1690792244736966   0.5272493252   T   T   T
0.5658013148757813   0.1692065718033221   0.5268927637   T   T   T
0.7667381607457170   0.1682626200028927   0.5281259964   T   T   T
0.9684031659638845   0.3685410862468109   0.5278206647   T   T   T
0.1684791918328585   0.3679981189595892   0.5264756790   T   T   T
0.3650221921038268   0.3770132355991221   0.5293512594   T   T   T
0.5662274800001247   0.3693666882211573   0.5271746510   T   T   T
0.7671380131047818   0.3685671526646629   0.5279971212   T   T   T
0.9649390949442678   0.5695651154533171   0.5270201028   T   T   T
0.1661969465518497   0.5656657560783608   0.5261379433   T   T   T
0.3740055501073439   0.5658695113013807   0.5266875018   T   T   T
0.5704945957445323   0.5701356572434014   0.5266071080   T   T   T
0.7680350287993726   0.5685587478672781   0.5281620674   T   T   T
0.9685030804646981   0.7663057821888646   0.5285032627   T   T   T
0.1719093133577621   0.7612318404859557   0.5288209275   T   T   T
0.3695548710421431   0.7669060444330850   0.5285484940   T   T   T
0.5684902198693065   0.7693682462783736   0.5284250424   T   T   T
0.7669859555919939   0.7693066840507859   0.5286589166   T   T   T
0.9700814053757723   0.9655312623007525   0.5280360858   T   T   T
0.1691976636799423   0.9652824320473786   0.5284193471   T   T   T
0.3689549559265438   0.9675902414627873   0.5280913330   T   T   T
0.5683362686040054   0.9686319166377054   0.5283640782   T   T   T
0.7680270668845681   0.9680821465638740   0.5283622454   T   T   T
0.0364553222815175   0.0328401876003368   0.6011047322   T   T   T
0.2352233008839293   0.0340205911472537   0.6014005565   T   T   T
0.4324441333936394   0.0414305705696158   0.6004511723   T   T   T
0.6277975332519610   0.0458015585152670   0.6008565936   T   T   T
0.8357609278433591   0.0331464492464908   0.6010701628   T   T   T
0.0364965398158207   0.2355553623122230   0.6011088728   T   T   T
0.2373830592444680   0.2434994991208743   0.5998451971   T   T   T
0.4212954119961616   0.2623830660596749   0.5992111343   T   T   T
0.6272817007832986   0.2425599206348749   0.5987363720   T   T   T
0.8320919316712454   0.2360883051249404   0.6011078192   T   T   T
0.0406903598989686   0.4345401777181689   0.5991583439   T   T   T
0.6305276593284830   0.4353004885121609   0.5989417038   T   T   T
0.8357749544645462   0.4348650514975240   0.6014848236   T   T   T
0.0462689563310914   0.6252487355152402   0.5999015920   T   T   T
0.2523815032904279   0.6016130004612585   0.5972864247   T   T   T
0.4359994385417914   0.6272111227278985   0.5991851968   T   T   T
0.6331692660231344   0.6333848357145123   0.6013683061   T   T   T
0.8385566145898905   0.6326791892103945   0.6015125751   T   T   T
0.0385179953339757   0.8287945880278736   0.6011588115   T   T   T
0.2387164687301215   0.8236389635688419   0.6016403192   T   T   T
0.4346110263714553   0.8364203960486304   0.6021342762   T   T   T
0.6343551475711703   0.8369498906063203   0.6027754386   T   T   T
0.8355340295920246   0.8341960756655307   0.6024579029   T   T   T
0.2239477604840424   0.4341816271491726   0.5868905660   T   T   T
0.4456523926240155   0.4358754152471986   0.5958222404   T   T   T
0.4141674748302116   0.4329153195411697   0.6453637143   T   T   T
0.3940344550278158   0.4306942090551824   0.6847602795   T   T   T
0.3300026385016547   0.4244607724398403   0.6895616083   T   T   T
 
  0.00000000E+00  0.00000000E+00  0.00000000E+00
  0.00000000E+00  0.00000000E+00  0.00000000E+00
  0.00000000E+00  0.00000000E+00  0.00000000E+00
  0.00000000E+00  0.00000000E+00  0.00000000E+00
  0.00000000E+00  0.00000000E+00  0.00000000E+00
  0.00000000E+00  0.00000000E+00  0.00000000E+00
  0.00000000E+00  0.00000000E+00  0.00000000E+00
  0.00000000E+00  0.00000000E+00  0.00000000E+00
  0.00000000E+00  0.00000000E+00  0.00000000E+00
  0.00000000E+00  0.00000000E+00  0.00000000E+00
  0.00000000E+00  0.00000000E+00  0.00000000E+00
  0.00000000E+00  0.00000000E+00  0.00000000E+00
  0.00000000E+00  0.00000000E+00  0.00000000E+00
  0.00000000E+00  0.00000000E+00  0.00000000E+00
  0.00000000E+00  0.00000000E+00  0.00000000E+00
  0.00000000E+00  0.00000000E+00  0.00000000E+00
  0.00000000E+00  0.00000000E+00  0.00000000E+00
  0.00000000E+00  0.00000000E+00  0.00000000E+00
  0.00000000E+00  0.00000000E+00  0.00000000E+00
  0.00000000E+00  0.00000000E+00  0.00000000E+00
  0.00000000E+00  0.00000000E+00  0.00000000E+00
  0.00000000E+00  0.00000000E+00  0.00000000E+00
  0.00000000E+00  0.00000000E+00  0.00000000E+00
  0.00000000E+00  0.00000000E+00  0.00000000E+00
  0.00000000E+00  0.00000000E+00  0.00000000E+00
  0.00000000E+00  0.00000000E+00  0.00000000E+00
  0.00000000E+00  0.00000000E+00  0.00000000E+00
  0.00000000E+00  0.00000000E+00  0.00000000E+00
  0.00000000E+00  0.00000000E+00  0.00000000E+00
  0.00000000E+00  0.00000000E+00  0.00000000E+00
  0.00000000E+00  0.00000000E+00  0.00000000E+00
  0.00000000E+00  0.00000000E+00  0.00000000E+00
  0.00000000E+00  0.00000000E+00  0.00000000E+00
  0.00000000E+00  0.00000000E+00  0.00000000E+00
  0.00000000E+00  0.00000000E+00  0.00000000E+00
  0.00000000E+00  0.00000000E+00  0.00000000E+00
  0.00000000E+00  0.00000000E+00  0.00000000E+00
  0.00000000E+00  0.00000000E+00  0.00000000E+00
  0.00000000E+00  0.00000000E+00  0.00000000E+00
  0.00000000E+00  0.00000000E+00  0.00000000E+00
  0.00000000E+00  0.00000000E+00  0.00000000E+00
  0.00000000E+00  0.00000000E+00  0.00000000E+00
  0.00000000E+00  0.00000000E+00  0.00000000E+00
  0.00000000E+00  0.00000000E+00  0.00000000E+00
  0.00000000E+00  0.00000000E+00  0.00000000E+00
  0.00000000E+00  0.00000000E+00  0.00000000E+00
  0.00000000E+00  0.00000000E+00  0.00000000E+00
  0.00000000E+00  0.00000000E+00  0.00000000E+00
  0.00000000E+00  0.00000000E+00  0.00000000E+00
  0.00000000E+00  0.00000000E+00  0.00000000E+00
  0.00000000E+00  0.00000000E+00  0.00000000E+00
  0.00000000E+00  0.00000000E+00  0.00000000E+00
  0.00000000E+00  0.00000000E+00  0.00000000E+00
  0.00000000E+00  0.00000000E+00  0.00000000E+00
  0.00000000E+00  0.00000000E+00  0.00000000E+00
  0.00000000E+00  0.00000000E+00  0.00000000E+00
  0.00000000E+00  0.00000000E+00  0.00000000E+00
  0.00000000E+00  0.00000000E+00  0.00000000E+00
  0.00000000E+00  0.00000000E+00  0.00000000E+00
  0.00000000E+00  0.00000000E+00  0.00000000E+00
  0.00000000E+00  0.00000000E+00  0.00000000E+00
  0.00000000E+00  0.00000000E+00  0.00000000E+00
  0.00000000E+00  0.00000000E+00  0.00000000E+00
  0.00000000E+00  0.00000000E+00  0.00000000E+00
  0.00000000E+00  0.00000000E+00  0.00000000E+00
  0.00000000E+00  0.00000000E+00  0.00000000E+00
  0.00000000E+00  0.00000000E+00  0.00000000E+00
  0.00000000E+00  0.00000000E+00  0.00000000E+00
  0.00000000E+00  0.00000000E+00  0.00000000E+00
  0.00000000E+00  0.00000000E+00  0.00000000E+00
  0.00000000E+00  0.00000000E+00  0.00000000E+00
  0.00000000E+00  0.00000000E+00  0.00000000E+00
  0.00000000E+00  0.00000000E+00  0.00000000E+00
  0.00000000E+00  0.00000000E+00  0.00000000E+00
  0.00000000E+00  0.00000000E+00  0.00000000E+00
  0.00000000E+00  0.00000000E+00  0.00000000E+00
  0.00000000E+00  0.00000000E+00  0.00000000E+00
  0.00000000E+00  0.00000000E+00  0.00000000E+00
  0.00000000E+00  0.00000000E+00  0.00000000E+00
  0.00000000E+00  0.00000000E+00  0.00000000E+00
  0.00000000E+00  0.00000000E+00  0.00000000E+00
  0.00000000E+00  0.00000000E+00  0.00000000E+00
  0.00000000E+00  0.00000000E+00  0.00000000E+00
  0.00000000E+00  0.00000000E+00  0.00000000E+00
  0.00000000E+00  0.00000000E+00  0.00000000E+00
  0.00000000E+00  0.00000000E+00  0.00000000E+00
  0.00000000E+00  0.00000000E+00  0.00000000E+00
  0.00000000E+00  0.00000000E+00  0.00000000E+00
  0.00000000E+00  0.00000000E+00  0.00000000E+00
  0.00000000E+00  0.00000000E+00  0.00000000E+00
  0.00000000E+00  0.00000000E+00  0.00000000E+00
  0.00000000E+00  0.00000000E+00  0.00000000E+00
  0.00000000E+00  0.00000000E+00  0.00000000E+00
  0.00000000E+00  0.00000000E+00  0.00000000E+00
  0.00000000E+00  0.00000000E+00  0.00000000E+00
  0.00000000E+00  0.00000000E+00  0.00000000E+00
  0.00000000E+00  0.00000000E+00  0.00000000E+00
  0.00000000E+00  0.00000000E+00  0.00000000E+00
  0.00000000E+00  0.00000000E+00  0.00000000E+00
  0.00000000E+00  0.00000000E+00  0.00000000E+00
  0.00000000E+00  0.00000000E+00  0.00000000E+00
  0.00000000E+00  0.00000000E+00  0.00000000E+00
  0.00000000E+00  0.00000000E+00  0.00000000E+00
  0.00000000E+00  0.00000000E+00  0.00000000E+00
  0.00000000E+00  0.00000000E+00  0.00000000E+00
  0.00000000E+00  0.00000000E+00  0.00000000E+00
  0.00000000E+00  0.00000000E+00  0.00000000E+00
  0.00000000E+00  0.00000000E+00  0.00000000E+00
  0.00000000E+00  0.00000000E+00  0.00000000E+00
  0.00000000E+00  0.00000000E+00  0.00000000E+00
  0.00000000E+00  0.00000000E+00  0.00000000E+00
  0.00000000E+00  0.00000000E+00  0.00000000E+00
  0.00000000E+00  0.00000000E+00  0.00000000E+00
  0.00000000E+00  0.00000000E+00  0.00000000E+00
  0.00000000E+00  0.00000000E+00  0.00000000E+00
  0.00000000E+00  0.00000000E+00  0.00000000E+00
  0.00000000E+00  0.00000000E+00  0.00000000E+00
  0.00000000E+00  0.00000000E+00  0.00000000E+00
  0.00000000E+00  0.00000000E+00  0.00000000E+00
  0.00000000E+00  0.00000000E+00  0.00000000E+00
  0.00000000E+00  0.00000000E+00  0.00000000E+00
  0.00000000E+00  0.00000000E+00  0.00000000E+00
  0.00000000E+00  0.00000000E+00  0.00000000E+00
  0.00000000E+00  0.00000000E+00  0.00000000E+00
  0.00000000E+00  0.00000000E+00  0.00000000E+00
  0.00000000E+00  0.00000000E+00  0.00000000E+00
  0.00000000E+00  0.00000000E+00  0.00000000E+00
  0.00000000E+00  0.00000000E+00  0.00000000E+00
