Al Fe Al  C  H  C  H  C  H 
 1.0000000000000000
    14.3189123190275875   0.0000000000000000   0.0000000000000000
    7.1594561595137938   12.4005418228398376   0.0000000000000000
   0.0000000000   0.0000000000   34.9250101810
 Al  Fe  Al  C   H   C   H   C   H  
 112   1  12   2   4   1   3   1   2
Selective dynamics
Cartesian
14.3189123190275360   1.6534055763786395   10.0000000000   F   F   F
2.8637824638055078   1.6534055763786395   10.0000000000   F   F   F
5.7275649276110663   1.6534055763786395   10.0000000000   F   F   F
8.5913473914165230   1.6534055763786395   10.0000000000   F   F   F
11.4551298552220793   1.6534055763786395   10.0000000000   F   F   F
15.7508035509303159   4.1335139409466422   10.0000000000   F   F   F
4.2956736957082864   4.1335139409466422   10.0000000000   F   F   F
7.1594561595138444   4.1335139409466422   10.0000000000   F   F   F
10.0232386233193012   4.1335139409466422   10.0000000000   F   F   F
12.8870210871248592   4.1335139409466422   10.0000000000   F   F   F
17.1826947828330425   6.6136223055145562   10.0000000000   F   F   F
5.7275649276110148   6.6136223055145562   10.0000000000   F   F   F
8.5913473914165728   6.6136223055145562   10.0000000000   F   F   F
11.4551298552220295   6.6136223055145562   10.0000000000   F   F   F
14.3189123190275875   6.6136223055145562   10.0000000000   F   F   F
18.6145860147358206   9.0937306700825591   10.0000000000   F   F   F
7.1594561595137938   9.0937306700825591   10.0000000000   F   F   F
10.0232386233193509   9.0937306700825591   10.0000000000   F   F   F
12.8870210871248077   9.0937306700825591   10.0000000000   F   F   F
15.7508035509303657   9.0937306700825591   10.0000000000   F   F   F
20.0464772466386023   11.5738390346505629   10.0000000000   F   F   F
8.5913473914165728   11.5738390346505629   10.0000000000   F   F   F
11.4551298552221308   11.5738390346505629   10.0000000000   F   F   F
14.3189123190275875   11.5738390346505629   10.0000000000   F   F   F
17.1826947828331456   11.5738390346505629   10.0000000000   F   F   F
0.0000000000000000   0.0000000000000000   12.3382685902   F   F   F
2.8637824638055576   0.0000000000000000   12.3382685902   F   F   F
5.7275649276110148   0.0000000000000000   12.3382685902   F   F   F
8.5913473914165728   0.0000000000000000   12.3382685902   F   F   F
11.4551298552220295   0.0000000000000000   12.3382685902   F   F   F
1.4318912319027788   2.4801083645680020   12.3382685902   F   F   F
4.2956736957083361   2.4801083645680020   12.3382685902   F   F   F
7.1594561595137938   2.4801083645680020   12.3382685902   F   F   F
10.0232386233193509   2.4801083645680020   12.3382685902   F   F   F
12.8870210871248077   2.4801083645680020   12.3382685902   F   F   F
2.8637824638055074   4.9602167291359178   12.3382685902   F   F   F
5.7275649276110645   4.9602167291359178   12.3382685902   F   F   F
8.5913473914165230   4.9602167291359178   12.3382685902   F   F   F
11.4551298552220793   4.9602167291359178   12.3382685902   F   F   F
14.3189123190275360   4.9602167291359178   12.3382685902   F   F   F
4.2956736957082864   7.4403250937039198   12.3382685902   F   F   F
7.1594561595138444   7.4403250937039198   12.3382685902   F   F   F
10.0232386233193012   7.4403250937039198   12.3382685902   F   F   F
12.8870210871248592   7.4403250937039198   12.3382685902   F   F   F
15.7508035509303159   7.4403250937039198   12.3382685902   F   F   F
5.7275649276110148   9.9204334582718356   12.3382685902   F   F   F
8.5913473914165728   9.9204334582718356   12.3382685902   F   F   F
11.4551298552220295   9.9204334582718356   12.3382685902   F   F   F
14.3189123190275875   9.9204334582718356   12.3382685902   F   F   F
17.1826947828330461   9.9204334582718356   12.3382685902   F   F   F
1.4318912319028303   0.8267027881893638   14.6765371804   F   F   F
4.2956736957082864   0.8267027881893638   14.6765371804   F   F   F
7.1594561595138453   0.8267027881893638   14.6765371804   F   F   F
10.0232386233193012   0.8267027881893638   14.6765371804   F   F   F
12.8870210871248592   0.8267027881893638   14.6765371804   F   F   F
2.8637824638055585   3.3068111527572781   14.6765371804   F   F   F
5.7275649276110148   3.3068111527572781   14.6765371804   F   F   F
8.5913473914165728   3.3068111527572781   14.6765371804   F   F   F
11.4551298552220295   3.3068111527572781   14.6765371804   F   F   F
14.3189123190275875   3.3068111527572781   14.6765371804   F   F   F
4.2956736957083379   5.7869195173252814   14.6765371804   F   F   F
7.1594561595137947   5.7869195173252814   14.6765371804   F   F   F
10.0232386233193527   5.7869195173252814   14.6765371804   F   F   F
12.8870210871248094   5.7869195173252814   14.6765371804   F   F   F
15.7508035509303674   5.7869195173252814   14.6765371804   F   F   F
5.7275649276110663   8.2670278818931955   14.6765371804   F   F   F
8.5913473914165230   8.2670278818931955   14.6765371804   F   F   F
11.4551298552220810   8.2670278818931955   14.6765371804   F   F   F
14.3189123190275378   8.2670278818931955   14.6765371804   F   F   F
17.1826947828330958   8.2670278818931955   14.6765371804   F   F   F
7.1594561595138453   10.7471362464611992   14.6765371804   F   F   F
10.0232386233193012   10.7471362464611992   14.6765371804   F   F   F
12.8870210871248609   10.7471362464611992   14.6765371804   F   F   F
15.7508035509303177   10.7471362464611992   14.6765371804   F   F   F
18.6145860147358739   10.7471362464611992   14.6765371804   F   F   F
14.3077357404171064   1.6598583119454564   17.0114272434   T   T   T
2.8749587213955246   1.6598581940046571   17.0114274422   T   T   T
5.7478754065492197   1.6667679682495788   17.0128864388   T   T   T
8.5913479607876955   1.6225104352829505   16.9691801580   T   T   T
11.4348192853452524   1.6667690869924225   17.0128867210   T   T   T
15.7508032367196797   4.1298063136057026   17.0144007549   T   T   T
4.3174011123113454   4.1444221418602822   17.0128864433   T   T   T
7.1847595907736519   4.1481228999404154   16.9901177726   T   T   T
9.9979340125804566   4.1481245189944529   16.9901176869   T   T   T
12.8652927466838687   4.1444234779232483   17.0128868742   T   T   T
17.1745200311679618   6.6124105614025597   17.0203796771   T   T   T
5.7008092241084745   6.6290703503866109   16.9691801670   T   T   T
8.5913482129070342   6.5844025913726449   16.9901176356   T   T   T
11.4818854374313979   6.6290696269639104   16.9691798915   T   T   T
14.3270871723356503   6.6124104226271649   17.0203794607   T   T   T
18.6115483034297426   9.1014164651620852   17.0203796721   T   T   T
7.1608740168420963   9.0694594539869247   17.0128867207   T   T   T
10.0218223798695885   9.0694586220389173   17.0128868815   T   T   T
12.8900590045062700   9.1014162444849944   17.0203794647   T   T   T
15.7508035338787291   9.0937306516976513   17.0308170652   T   T   T
20.0496880053397390   11.5756927762749839   17.0144008504   T   T   T
8.5913473330731751   11.5609334684721876   17.0114272586   T   T   T
11.4519188065725253   11.5756925826483670   17.0144007783   T   T   T
14.3137755378573210   11.5673653727242378   17.0203796823   T   T   T
17.1878320236542308   11.5673654135662645   17.0203796747   T   T   T
-0.0035937590672925   -0.0020748572347114   19.3554667501   T   T   T
2.8673760677660538   -0.0020749744307255   19.3554665179   T   T   T
5.7416993352208241   0.0198388722869164   19.3659711222   T   T   T
8.5913479114501641   0.0411354244415456   19.3555730037   T   T   T
11.4409952920035902   0.0198390385621521   19.3659716110   T   T   T
1.4318910514278387   2.4842579924620538   19.3554665086   T   T   T
4.3283122864449082   2.4989522673677089   19.3641407824   T   T   T
7.2204845578223944   2.5736728300383747   19.3146665897   T   T   T
9.9622100149572326   2.5736741986052163   19.3146659103   T   T   T
12.8543834733718789   2.4989517677987072   19.3641405858   T   T   T
2.8880306399683775   4.9625380419315990   19.3659711151   T   T   T
5.8391083792001499   4.9662866147724536   19.3146665837   T   T   T
8.5913481696500327   4.9602171782636804   18.9591261818   T   T   T
11.3435864200306646   4.9662860586234832   19.3146670432   T   T   T
14.2946639278597818   4.9625394863325001   19.3659713987   T   T   T
4.3312982826302466   7.4197578362467933   19.3555730239   T   T   T
7.2099722607811536   7.3406898791243282   19.3146659269   T   T   T
9.9727231191890908   7.3406910268644054   19.3146670549   T   T   T
12.8513957300166233   7.4197567791708590   19.3555729014   T   T   T
15.7508035756767626   7.4372319730773055   19.3941930375   T   T   T
5.7376787613661540   9.8982730497765896   19.3659716252   T   T   T
8.5913474375705974   9.8827467448811266   19.3641405971   T   T   T
11.4450172344572216   9.8982723618868693   19.3659714197   T   T   T
14.3162335984028157   9.9219800404190703   19.3941930408   T   T   T
17.1853738516036962   9.9219802096647598   19.3941928456   T   T   T
7.6346132811902230   6.0218131940240314   21.8038545444   T   T   T
8.4801280443104030   5.0758722985269573   20.9494766821   T   T   T
9.5330389845889432   5.2077856199139179   21.2194598557   T   T   T
8.2310999603892601   4.0443715963982854   21.2203128602   T   T   T
6.5601012998112234   5.8882815346342818   21.6369652648   T   T   T
7.8640561894247973   7.0767236936323190   21.6119679103   T   T   T
7.8190788133164295   6.3420233402930712   24.2484149845   T   T   T
7.1794291963326700   7.2356324172689037   24.2196447455   T   T   T
8.7650484577914725   6.6408082848045611   24.7133103733   T   T   T
7.3368989306024393   5.6264660809342004   24.9250101810   T   T   T
8.4367591015661887   5.7041828010298117   23.0502724060   T   T   T
8.0924693667395857   4.7285496041621746   23.1310363855   T   T   T
9.3194637929971673   6.0921094901055373   23.1613478316   T   T   T
