Al Fe Al  C  H                          
   1.00000000000000     
    14.3189123190275875    0.0000000000000000    0.0000000000000000
     7.1594561595137938   12.4005418228398376    0.0000000000000000
   0.0000000000   0.0000000000   34.5207477512
   Al   Fe   Al   C    H 
   112     1    12     5    11
Selective dynamics
Direct
0.9333333333333300   0.1333333333333329   0.2896808630   F   F   F
0.1333333333333329   0.1333333333333329   0.2896808630   F   F   F
0.3333333333333357   0.1333333333333329   0.2896808630   F   F   F
0.5333333333333314   0.1333333333333329   0.2896808630   F   F   F
0.7333333333333343   0.1333333333333329   0.2896808630   F   F   F
0.9333333333333300   0.3333333333333357   0.2896808630   F   F   F
0.1333333333333329   0.3333333333333357   0.2896808630   F   F   F
0.3333333333333357   0.3333333333333357   0.2896808630   F   F   F
0.5333333333333314   0.3333333333333357   0.2896808630   F   F   F
0.7333333333333343   0.3333333333333357   0.2896808630   F   F   F
0.9333333333333300   0.5333333333333314   0.2896808630   F   F   F
0.1333333333333329   0.5333333333333314   0.2896808630   F   F   F
0.3333333333333357   0.5333333333333314   0.2896808630   F   F   F
0.5333333333333314   0.5333333333333314   0.2896808630   F   F   F
0.7333333333333343   0.5333333333333314   0.2896808630   F   F   F
0.9333333333333300   0.7333333333333343   0.2896808630   F   F   F
0.1333333333333329   0.7333333333333343   0.2896808630   F   F   F
0.3333333333333357   0.7333333333333343   0.2896808630   F   F   F
0.5333333333333314   0.7333333333333343   0.2896808630   F   F   F
0.7333333333333343   0.7333333333333343   0.2896808630   F   F   F
0.9333333333333300   0.9333333333333371   0.2896808630   F   F   F
0.1333333333333329   0.9333333333333371   0.2896808630   F   F   F
0.3333333333333357   0.9333333333333371   0.2896808630   F   F   F
0.5333333333333314   0.9333333333333371   0.2896808630   F   F   F
0.7333333333333343   0.9333333333333371   0.2896808630   F   F   F
0.0000000000000000   0.0000000000000000   0.3574160293   F   F   F
0.2000000000000028   0.0000000000000000   0.3574160293   F   F   F
0.3999999999999986   0.0000000000000000   0.3574160293   F   F   F
0.6000000000000014   0.0000000000000000   0.3574160293   F   F   F
0.7999999999999972   0.0000000000000000   0.3574160293   F   F   F
0.0000000000000000   0.2000000000000028   0.3574160293   F   F   F
0.2000000000000028   0.2000000000000028   0.3574160293   F   F   F
0.3999999999999986   0.2000000000000028   0.3574160293   F   F   F
0.6000000000000014   0.2000000000000028   0.3574160293   F   F   F
0.7999999999999972   0.2000000000000028   0.3574160293   F   F   F
0.0000000000000000   0.3999999999999986   0.3574160293   F   F   F
0.2000000000000028   0.3999999999999986   0.3574160293   F   F   F
0.3999999999999986   0.3999999999999986   0.3574160293   F   F   F
0.6000000000000014   0.3999999999999986   0.3574160293   F   F   F
0.7999999999999972   0.3999999999999986   0.3574160293   F   F   F
0.0000000000000000   0.6000000000000014   0.3574160293   F   F   F
0.2000000000000028   0.6000000000000014   0.3574160293   F   F   F
0.3999999999999986   0.6000000000000014   0.3574160293   F   F   F
0.6000000000000014   0.6000000000000014   0.3574160293   F   F   F
0.7999999999999972   0.6000000000000014   0.3574160293   F   F   F
0.0000000000000000   0.7999999999999972   0.3574160293   F   F   F
0.2000000000000028   0.7999999999999972   0.3574160293   F   F   F
0.3999999999999986   0.7999999999999972   0.3574160293   F   F   F
0.6000000000000014   0.7999999999999972   0.3574160293   F   F   F
0.7999999999999972   0.7999999999999972   0.3574160293   F   F   F
0.0666666666666700   0.0666666666666700   0.4251511956   F   F   F
0.2666666666666657   0.0666666666666700   0.4251511956   F   F   F
0.4666666666666686   0.0666666666666700   0.4251511956   F   F   F
0.6666666666666643   0.0666666666666700   0.4251511956   F   F   F
0.8666666666666671   0.0666666666666700   0.4251511956   F   F   F
0.0666666666666700   0.2666666666666657   0.4251511956   F   F   F
0.2666666666666657   0.2666666666666657   0.4251511956   F   F   F
0.4666666666666686   0.2666666666666657   0.4251511956   F   F   F
0.6666666666666643   0.2666666666666657   0.4251511956   F   F   F
0.8666666666666671   0.2666666666666657   0.4251511956   F   F   F
0.0666666666666700   0.4666666666666686   0.4251511956   F   F   F
0.2666666666666657   0.4666666666666686   0.4251511956   F   F   F
0.4666666666666686   0.4666666666666686   0.4251511956   F   F   F
0.6666666666666643   0.4666666666666686   0.4251511956   F   F   F
0.8666666666666671   0.4666666666666686   0.4251511956   F   F   F
0.0666666666666700   0.6666666666666643   0.4251511956   F   F   F
0.2666666666666657   0.6666666666666643   0.4251511956   F   F   F
0.4666666666666686   0.6666666666666643   0.4251511956   F   F   F
0.6666666666666643   0.6666666666666643   0.4251511956   F   F   F
0.8666666666666671   0.6666666666666643   0.4251511956   F   F   F
0.0666666666666700   0.8666666666666671   0.4251511956   F   F   F
0.2666666666666657   0.8666666666666671   0.4251511956   F   F   F
0.4666666666666686   0.8666666666666671   0.4251511956   F   F   F
0.6666666666666643   0.8666666666666671   0.4251511956   F   F   F
0.8666666666666671   0.8666666666666671   0.4251511956   F   F   F
0.9325265459324922   0.1339245636468445   0.4927547082   T   T   T
0.1338496147671239   0.1338575912727273   0.4926747185   T   T   T
0.3342199128184637   0.1345571197193005   0.4923655205   T   T   T
0.5350849202661726   0.1304880809232909   0.4911841749   T   T   T
0.7314215882505976   0.1346633752364270   0.4927367961   T   T   T
0.9336979929040840   0.3329284892512812   0.4928397538   T   T   T
0.1342518707321667   0.3346143530079713   0.4925437149   T   T   T
0.3350392643348143   0.3357603257795359   0.4927116641   T   T   T
0.5290107373459149   0.3352091714749112   0.4931236676   T   T   T
0.7313814533328343   0.3339890938387862   0.4927300647   T   T   T
0.9327072664750308   0.5334747695339216   0.4930399595   T   T   T
0.1307200220422516   0.5348837279048276   0.4913232111   T   T   T
0.3355725590264267   0.5286999934499509   0.4933187413   T   T   T
0.5345477140995031   0.5344956087944714   0.4912402769   T   T   T
0.7339464165456229   0.5332937056721160   0.4930699480   T   T   T
0.9328855059801906   0.7341113044468195   0.4930272862   T   T   T
0.1346708163046653   0.7314919340210588   0.4926812638   T   T   T
0.3338514422993998   0.7316838296437290   0.4925952307   T   T   T
0.5331668315805235   0.7339075105998188   0.4930936379   T   T   T
0.7332822133944487   0.7333267328679068   0.4933596720   T   T   T
0.9335051933928011   0.9337195190488072   0.4928451572   T   T   T
0.1337869697175360   0.9327659619982663   0.4927370756   T   T   T
0.3331191375374540   0.9336845724346312   0.4928805443   T   T   T
0.5335110492630706   0.9326418388953222   0.4930441756   T   T   T
0.7341116362301046   0.9326676551332308   0.4930172356   T   T   T
-0.0000693578077263   0.0001810468761282   0.5606806680   T   T   T
0.2003009488749792   0.0001712630057637   0.5607139715   T   T   T
0.4001328814408953   0.0023198570886436   0.5609741137   T   T   T
0.5984337276870746   0.0033372227001404   0.5607794683   T   T   T
0.7981750453895106   0.0019173837021722   0.5610867857   T   T   T
-0.0000444912950101   0.2004600562668061   0.5606913426   T   T   T
0.2006828521877697   0.2012730545220493   0.5601623771   T   T   T
0.4007582410875599   0.2072225292799098   0.5579294135   T   T   T
0.5929207073011473   0.2069720710777388   0.5589874785   T   T   T
0.7980012604412956   0.2012235690130045   0.5608383019   T   T   T
0.0016735881781773   0.4005303460653551   0.5610282565   T   T   T
0.2065384150203118   0.4013007689913862   0.5587102949   T   T   T
0.4000778836876478   0.3971612683156139   0.5568674482   T   T   T
0.5935500837872574   0.4006201183128050   0.5586847444   T   T   T
0.7990527406729551   0.4002164501057593   0.5609848479   T   T   T
0.0033033606333931   0.5986847773106685   0.5608811620   T   T   T
0.2057619700326492   0.5943074250391498   0.5588186370   T   T   T
0.4003147659262383   0.5945992238246393   0.5584087468   T   T   T
0.5986823883791197   0.5982269265205169   0.5609399607   T   T   T
0.8000310615297836   0.6004141902384990   0.5617822617   T   T   T
0.0011102329925220   0.7990640644662144   0.5609180306   T   T   T
0.2009801758505885   0.7985391040481062   0.5608313978   T   T   T
0.4001686266245781   0.7991883807814331   0.5609383846   T   T   T
0.5997307609499136   0.8003685341354060   0.5618592616   T   T   T
0.8001701553836252   0.8003636039016152   0.5617378736   T   T   T
0.4010275670258087   0.4099455360135973   0.6196222583   T   T   T
0.3662541595343277   0.2729840219325478   0.6564157015   T   T   T
0.3305789752531971   0.1366529548837498   0.6911390317   T   T   T
0.4122898663195597   0.1731181378884604   0.6824246379   T   T   T
0.4454780691347389   0.3119599145123789   0.6469012209   T   T   T
0.3177338597545022   0.4672081928678571   0.6281396400   T   T   T
0.4681112860714628   0.3344426020496643   0.6744017633   T   T   T
0.2941749379147855   0.3393053614472740   0.6700665302   T   T   T
0.3372293095883817   0.2550413593439288   0.6294530875   T   T   T
0.5208120225012065   0.2440601827993913   0.6356470422   T   T   T
0.4837514861766268   0.1069423293077859   0.6685321331   T   T   T
0.4403443074453964   0.1899443871636322   0.7096829656   T   T   T
0.2585068073935767   0.2011071722954297   0.7051267508   T   T   T
0.3046868903769311   0.1146447965274825   0.6645108217   T   T   T
0.4462643843133101   0.4517818776149138   0.6246962422   T   T   T
0.3645538704051158   0.0665421801286283   0.7103191370   T   T   T
 
  0.00000000E+00  0.00000000E+00  0.00000000E+00
  0.00000000E+00  0.00000000E+00  0.00000000E+00
  0.00000000E+00  0.00000000E+00  0.00000000E+00
  0.00000000E+00  0.00000000E+00  0.00000000E+00
  0.00000000E+00  0.00000000E+00  0.00000000E+00
  0.00000000E+00  0.00000000E+00  0.00000000E+00
  0.00000000E+00  0.00000000E+00  0.00000000E+00
  0.00000000E+00  0.00000000E+00  0.00000000E+00
  0.00000000E+00  0.00000000E+00  0.00000000E+00
  0.00000000E+00  0.00000000E+00  0.00000000E+00
  0.00000000E+00  0.00000000E+00  0.00000000E+00
  0.00000000E+00  0.00000000E+00  0.00000000E+00
  0.00000000E+00  0.00000000E+00  0.00000000E+00
  0.00000000E+00  0.00000000E+00  0.00000000E+00
  0.00000000E+00  0.00000000E+00  0.00000000E+00
  0.00000000E+00  0.00000000E+00  0.00000000E+00
  0.00000000E+00  0.00000000E+00  0.00000000E+00
  0.00000000E+00  0.00000000E+00  0.00000000E+00
  0.00000000E+00  0.00000000E+00  0.00000000E+00
  0.00000000E+00  0.00000000E+00  0.00000000E+00
  0.00000000E+00  0.00000000E+00  0.00000000E+00
  0.00000000E+00  0.00000000E+00  0.00000000E+00
  0.00000000E+00  0.00000000E+00  0.00000000E+00
  0.00000000E+00  0.00000000E+00  0.00000000E+00
  0.00000000E+00  0.00000000E+00  0.00000000E+00
  0.00000000E+00  0.00000000E+00  0.00000000E+00
  0.00000000E+00  0.00000000E+00  0.00000000E+00
  0.00000000E+00  0.00000000E+00  0.00000000E+00
  0.00000000E+00  0.00000000E+00  0.00000000E+00
  0.00000000E+00  0.00000000E+00  0.00000000E+00
  0.00000000E+00  0.00000000E+00  0.00000000E+00
  0.00000000E+00  0.00000000E+00  0.00000000E+00
  0.00000000E+00  0.00000000E+00  0.00000000E+00
  0.00000000E+00  0.00000000E+00  0.00000000E+00
  0.00000000E+00  0.00000000E+00  0.00000000E+00
  0.00000000E+00  0.00000000E+00  0.00000000E+00
  0.00000000E+00  0.00000000E+00  0.00000000E+00
  0.00000000E+00  0.00000000E+00  0.00000000E+00
  0.00000000E+00  0.00000000E+00  0.00000000E+00
  0.00000000E+00  0.00000000E+00  0.00000000E+00
  0.00000000E+00  0.00000000E+00  0.00000000E+00
  0.00000000E+00  0.00000000E+00  0.00000000E+00
  0.00000000E+00  0.00000000E+00  0.00000000E+00
  0.00000000E+00  0.00000000E+00  0.00000000E+00
  0.00000000E+00  0.00000000E+00  0.00000000E+00
  0.00000000E+00  0.00000000E+00  0.00000000E+00
  0.00000000E+00  0.00000000E+00  0.00000000E+00
  0.00000000E+00  0.00000000E+00  0.00000000E+00
  0.00000000E+00  0.00000000E+00  0.00000000E+00
  0.00000000E+00  0.00000000E+00  0.00000000E+00
  0.00000000E+00  0.00000000E+00  0.00000000E+00
  0.00000000E+00  0.00000000E+00  0.00000000E+00
  0.00000000E+00  0.00000000E+00  0.00000000E+00
  0.00000000E+00  0.00000000E+00  0.00000000E+00
  0.00000000E+00  0.00000000E+00  0.00000000E+00
  0.00000000E+00  0.00000000E+00  0.00000000E+00
  0.00000000E+00  0.00000000E+00  0.00000000E+00
  0.00000000E+00  0.00000000E+00  0.00000000E+00
  0.00000000E+00  0.00000000E+00  0.00000000E+00
  0.00000000E+00  0.00000000E+00  0.00000000E+00
  0.00000000E+00  0.00000000E+00  0.00000000E+00
  0.00000000E+00  0.00000000E+00  0.00000000E+00
  0.00000000E+00  0.00000000E+00  0.00000000E+00
  0.00000000E+00  0.00000000E+00  0.00000000E+00
  0.00000000E+00  0.00000000E+00  0.00000000E+00
  0.00000000E+00  0.00000000E+00  0.00000000E+00
  0.00000000E+00  0.00000000E+00  0.00000000E+00
  0.00000000E+00  0.00000000E+00  0.00000000E+00
  0.00000000E+00  0.00000000E+00  0.00000000E+00
  0.00000000E+00  0.00000000E+00  0.00000000E+00
  0.00000000E+00  0.00000000E+00  0.00000000E+00
  0.00000000E+00  0.00000000E+00  0.00000000E+00
  0.00000000E+00  0.00000000E+00  0.00000000E+00
  0.00000000E+00  0.00000000E+00  0.00000000E+00
  0.00000000E+00  0.00000000E+00  0.00000000E+00
  0.00000000E+00  0.00000000E+00  0.00000000E+00
  0.00000000E+00  0.00000000E+00  0.00000000E+00
  0.00000000E+00  0.00000000E+00  0.00000000E+00
  0.00000000E+00  0.00000000E+00  0.00000000E+00
  0.00000000E+00  0.00000000E+00  0.00000000E+00
  0.00000000E+00  0.00000000E+00  0.00000000E+00
  0.00000000E+00  0.00000000E+00  0.00000000E+00
  0.00000000E+00  0.00000000E+00  0.00000000E+00
  0.00000000E+00  0.00000000E+00  0.00000000E+00
  0.00000000E+00  0.00000000E+00  0.00000000E+00
  0.00000000E+00  0.00000000E+00  0.00000000E+00
  0.00000000E+00  0.00000000E+00  0.00000000E+00
  0.00000000E+00  0.00000000E+00  0.00000000E+00
  0.00000000E+00  0.00000000E+00  0.00000000E+00
  0.00000000E+00  0.00000000E+00  0.00000000E+00
  0.00000000E+00  0.00000000E+00  0.00000000E+00
  0.00000000E+00  0.00000000E+00  0.00000000E+00
  0.00000000E+00  0.00000000E+00  0.00000000E+00
  0.00000000E+00  0.00000000E+00  0.00000000E+00
  0.00000000E+00  0.00000000E+00  0.00000000E+00
  0.00000000E+00  0.00000000E+00  0.00000000E+00
  0.00000000E+00  0.00000000E+00  0.00000000E+00
  0.00000000E+00  0.00000000E+00  0.00000000E+00
  0.00000000E+00  0.00000000E+00  0.00000000E+00
  0.00000000E+00  0.00000000E+00  0.00000000E+00
  0.00000000E+00  0.00000000E+00  0.00000000E+00
  0.00000000E+00  0.00000000E+00  0.00000000E+00
  0.00000000E+00  0.00000000E+00  0.00000000E+00
  0.00000000E+00  0.00000000E+00  0.00000000E+00
  0.00000000E+00  0.00000000E+00  0.00000000E+00
  0.00000000E+00  0.00000000E+00  0.00000000E+00
  0.00000000E+00  0.00000000E+00  0.00000000E+00
  0.00000000E+00  0.00000000E+00  0.00000000E+00
  0.00000000E+00  0.00000000E+00  0.00000000E+00
  0.00000000E+00  0.00000000E+00  0.00000000E+00
  0.00000000E+00  0.00000000E+00  0.00000000E+00
  0.00000000E+00  0.00000000E+00  0.00000000E+00
  0.00000000E+00  0.00000000E+00  0.00000000E+00
  0.00000000E+00  0.00000000E+00  0.00000000E+00
  0.00000000E+00  0.00000000E+00  0.00000000E+00
  0.00000000E+00  0.00000000E+00  0.00000000E+00
  0.00000000E+00  0.00000000E+00  0.00000000E+00
  0.00000000E+00  0.00000000E+00  0.00000000E+00
  0.00000000E+00  0.00000000E+00  0.00000000E+00
  0.00000000E+00  0.00000000E+00  0.00000000E+00
  0.00000000E+00  0.00000000E+00  0.00000000E+00
  0.00000000E+00  0.00000000E+00  0.00000000E+00
  0.00000000E+00  0.00000000E+00  0.00000000E+00
  0.00000000E+00  0.00000000E+00  0.00000000E+00
  0.00000000E+00  0.00000000E+00  0.00000000E+00
  0.00000000E+00  0.00000000E+00  0.00000000E+00
  0.00000000E+00  0.00000000E+00  0.00000000E+00
  0.00000000E+00  0.00000000E+00  0.00000000E+00
  0.00000000E+00  0.00000000E+00  0.00000000E+00
  0.00000000E+00  0.00000000E+00  0.00000000E+00
  0.00000000E+00  0.00000000E+00  0.00000000E+00
  0.00000000E+00  0.00000000E+00  0.00000000E+00
  0.00000000E+00  0.00000000E+00  0.00000000E+00
  0.00000000E+00  0.00000000E+00  0.00000000E+00
  0.00000000E+00  0.00000000E+00  0.00000000E+00
  0.00000000E+00  0.00000000E+00  0.00000000E+00
  0.00000000E+00  0.00000000E+00  0.00000000E+00
  0.00000000E+00  0.00000000E+00  0.00000000E+00
  0.00000000E+00  0.00000000E+00  0.00000000E+00
  0.00000000E+00  0.00000000E+00  0.00000000E+00
  0.00000000E+00  0.00000000E+00  0.00000000E+00
