Al Fe  O  H                             
   1.00000000000000     
    14.3189123190275875    0.0000000000000000    0.0000000000000000
     7.1594561595137938   12.4005418228398376    0.0000000000000000
   0.0000000000   0.0000000000   31.7360449773
   Al   Fe   O    H 
   123     2     1     1
Selective dynamics
Direct
0.9675158876657477   0.1676230994069954   0.3150991249   F   F   F
0.1675158876657505   0.1676230994069954   0.3150991249   F   F   F
0.3675158876657534   0.1676230994069954   0.3150991249   F   F   F
0.5675158876657491   0.1676230994069954   0.3150991249   F   F   F
0.7675158876657520   0.1676230994069954   0.3150991249   F   F   F
0.9675158876657477   0.3676230994069982   0.3150991249   F   F   F
0.1675158876657505   0.3676230994069982   0.3150991249   F   F   F
0.3675158876657534   0.3676230994069982   0.3150991249   F   F   F
0.5675158876657491   0.3676230994069982   0.3150991249   F   F   F
0.7675158876657520   0.3676230994069982   0.3150991249   F   F   F
0.9675158876657477   0.5676230994069940   0.3150991249   F   F   F
0.1675158876657505   0.5676230994069940   0.3150991249   F   F   F
0.3675158876657534   0.5676230994069940   0.3150991249   F   F   F
0.5675158876657491   0.5676230994069940   0.3150991249   F   F   F
0.7675158876657520   0.5676230994069940   0.3150991249   F   F   F
0.9675158876657477   0.7676230994069968   0.3150991249   F   F   F
0.1675158876657505   0.7676230994069968   0.3150991249   F   F   F
0.3675158876657534   0.7676230994069968   0.3150991249   F   F   F
0.5675158876657491   0.7676230994069968   0.3150991249   F   F   F
0.7675158876657520   0.7676230994069968   0.3150991249   F   F   F
0.9675158876657477   0.9676230994069996   0.3150991249   F   F   F
0.1675158876657505   0.9676230994069996   0.3150991249   F   F   F
0.3675158876657534   0.9676230994069996   0.3150991249   F   F   F
0.5675158876657491   0.9676230994069996   0.3150991249   F   F   F
0.7675158876657520   0.9676230994069996   0.3150991249   F   F   F
0.0341825543324177   0.0342897660736625   0.3887777635   F   F   F
0.2341825543324205   0.0342897660736625   0.3887777635   F   F   F
0.4341825543324163   0.0342897660736625   0.3887777635   F   F   F
0.6341825543324191   0.0342897660736625   0.3887777635   F   F   F
0.8341825543324148   0.0342897660736625   0.3887777635   F   F   F
0.0341825543324177   0.2342897660736654   0.3887777635   F   F   F
0.2341825543324205   0.2342897660736654   0.3887777635   F   F   F
0.4341825543324163   0.2342897660736654   0.3887777635   F   F   F
0.6341825543324191   0.2342897660736654   0.3887777635   F   F   F
0.8341825543324148   0.2342897660736654   0.3887777635   F   F   F
0.0341825543324177   0.4342897660736611   0.3887777635   F   F   F
0.2341825543324205   0.4342897660736611   0.3887777635   F   F   F
0.4341825543324163   0.4342897660736611   0.3887777635   F   F   F
0.6341825543324191   0.4342897660736611   0.3887777635   F   F   F
0.8341825543324148   0.4342897660736611   0.3887777635   F   F   F
0.0341825543324177   0.6342897660736639   0.3887777635   F   F   F
0.2341825543324205   0.6342897660736639   0.3887777635   F   F   F
0.4341825543324163   0.6342897660736639   0.3887777635   F   F   F
0.6341825543324191   0.6342897660736639   0.3887777635   F   F   F
0.8341825543324148   0.6342897660736639   0.3887777635   F   F   F
0.0341825543324177   0.8342897660736597   0.3887777635   F   F   F
0.2341825543324205   0.8342897660736597   0.3887777635   F   F   F
0.4341825543324163   0.8342897660736597   0.3887777635   F   F   F
0.6341825543324191   0.8342897660736597   0.3887777635   F   F   F
0.8341825543324148   0.8342897660736597   0.3887777635   F   F   F
0.1008492209990877   0.1009564327403325   0.4624564022   F   F   F
0.3008492209990834   0.1009564327403325   0.4624564022   F   F   F
0.5008492209990862   0.1009564327403325   0.4624564022   F   F   F
0.7008492209990820   0.1009564327403325   0.4624564022   F   F   F
0.9008492209990848   0.1009564327403325   0.4624564022   F   F   F
0.1008492209990877   0.3009564327403282   0.4624564022   F   F   F
0.3008492209990834   0.3009564327403282   0.4624564022   F   F   F
0.5008492209990862   0.3009564327403282   0.4624564022   F   F   F
0.7008492209990820   0.3009564327403282   0.4624564022   F   F   F
0.9008492209990848   0.3009564327403282   0.4624564022   F   F   F
0.1008492209990877   0.5009564327403311   0.4624564022   F   F   F
0.3008492209990834   0.5009564327403311   0.4624564022   F   F   F
0.5008492209990862   0.5009564327403311   0.4624564022   F   F   F
0.7008492209990820   0.5009564327403311   0.4624564022   F   F   F
0.9008492209990848   0.5009564327403311   0.4624564022   F   F   F
0.1008492209990877   0.7009564327403268   0.4624564022   F   F   F
0.3008492209990834   0.7009564327403268   0.4624564022   F   F   F
0.5008492209990862   0.7009564327403268   0.4624564022   F   F   F
0.7008492209990820   0.7009564327403268   0.4624564022   F   F   F
0.9008492209990848   0.7009564327403268   0.4624564022   F   F   F
0.1008492209990877   0.9009564327403297   0.4624564022   F   F   F
0.3008492209990834   0.9009564327403297   0.4624564022   F   F   F
0.5008492209990862   0.9009564327403297   0.4624564022   F   F   F
0.7008492209990820   0.9009564327403297   0.4624564022   F   F   F
0.9008492209990848   0.9009564327403297   0.4624564022   F   F   F
0.9688022261460536   0.1658841965124110   0.5358840992   T   T   T
0.1698818043546569   0.1655550189466923   0.5355816985   T   T   T
0.3695088882869740   0.1678817393078412   0.5351390684   T   T   T
0.5658129910128653   0.1669989246516265   0.5358319539   T   T   T
0.7665009954960029   0.1663525196181351   0.5358765734   T   T   T
0.9674094631731358   0.3672965272756401   0.5352581074   T   T   T
0.1673336106811449   0.3658365032600610   0.5341290288   T   T   T
0.3664324506282001   0.3727455518141045   0.5377794770   T   T   T
0.5679601457459765   0.3677544965768523   0.5356171199   T   T   T
0.7674492925677920   0.3671580309663545   0.5361024990   T   T   T
0.9663482824021480   0.5676910312689101   0.5345988266   T   T   T
0.1698394531411829   0.5638351708669598   0.5350773514   T   T   T
0.3705030437741091   0.5647041447961262   0.5383679566   T   T   T
0.5713082521012511   0.5680757386782205   0.5344732449   T   T   T
0.7685466179183801   0.5678548961526884   0.5355898179   T   T   T
0.9714701594207171   0.7624441078893387   0.5362573912   T   T   T
0.1721486039964306   0.7608629336615861   0.5367024478   T   T   T
0.3703586783602550   0.7659129317926593   0.5356762248   T   T   T
0.5695312000833579   0.7681012207974174   0.5361150396   T   T   T
0.7678614277862379   0.7683633126319149   0.5359360819   T   T   T
0.9702588336376963   0.9624191928407637   0.5364980760   T   T   T
0.1695936704030320   0.9641606588623649   0.5359404091   T   T   T
0.3697639617309386   0.9658376280576643   0.5358908587   T   T   T
0.5682022859430984   0.9674482902406851   0.5361230920   T   T   T
0.7697541478358521   0.9646480811934759   0.5362297486   T   T   T
0.0371922464079730   0.0301777329944113   0.6094065486   T   T   T
0.2371756128541571   0.0329017813637686   0.6096136950   T   T   T
0.4337739474491836   0.0418057860657420   0.6094933022   T   T   T
0.6318908917125213   0.0389102999744250   0.6100382008   T   T   T
0.8367152226098186   0.0316738419730829   0.6103282461   T   T   T
0.0365651286113487   0.2322313798418330   0.6095198157   T   T   T
0.2359844656912801   0.2399398172550121   0.6084065719   T   T   T
0.4190863622984841   0.2610436818415648   0.6109475855   T   T   T
0.6266510914379851   0.2386108913070889   0.6095778393   T   T   T
0.8344222734535187   0.2330492603285965   0.6095118091   T   T   T
0.0399005470473204   0.4314252991593852   0.6076965755   T   T   T
0.6314739510031551   0.4329515465796230   0.6095816249   T   T   T
0.8357632169275491   0.4324771930015984   0.6099045716   T   T   T
0.0441512316473043   0.6223982106987052   0.6081961797   T   T   T
0.2508829707472114   0.5934137071360839   0.6152244358   T   T   T
0.4405525885802879   0.6288221332602655   0.6079102716   T   T   T
0.6382093037828135   0.6318277478910158   0.6097843612   T   T   T
0.8403098729517889   0.6315030063400316   0.6094590152   T   T   T
0.0452362134979200   0.8219680954188832   0.6104754457   T   T   T
0.2399668104035095   0.8266319026117322   0.6100864017   T   T   T
0.4370082062612301   0.8353321507559813   0.6107035832   T   T   T
0.6361625607520164   0.8353876094401324   0.6108765890   T   T   T
0.8380914017458255   0.8325215452703492   0.6105661849   T   T   T
0.2217221534973310   0.4299457994857137   0.5953952070   T   T   T
0.4502596006523430   0.4284685712893525   0.5984371452   T   T   T
0.3198106725035377   0.5528092290197126   0.6638594889   T   T   T
0.3024354939514821   0.5148773707106300   0.6849008751   T   T   T
 
  0.00000000E+00  0.00000000E+00  0.00000000E+00
  0.00000000E+00  0.00000000E+00  0.00000000E+00
  0.00000000E+00  0.00000000E+00  0.00000000E+00
  0.00000000E+00  0.00000000E+00  0.00000000E+00
  0.00000000E+00  0.00000000E+00  0.00000000E+00
  0.00000000E+00  0.00000000E+00  0.00000000E+00
  0.00000000E+00  0.00000000E+00  0.00000000E+00
  0.00000000E+00  0.00000000E+00  0.00000000E+00
  0.00000000E+00  0.00000000E+00  0.00000000E+00
  0.00000000E+00  0.00000000E+00  0.00000000E+00
  0.00000000E+00  0.00000000E+00  0.00000000E+00
  0.00000000E+00  0.00000000E+00  0.00000000E+00
  0.00000000E+00  0.00000000E+00  0.00000000E+00
  0.00000000E+00  0.00000000E+00  0.00000000E+00
  0.00000000E+00  0.00000000E+00  0.00000000E+00
  0.00000000E+00  0.00000000E+00  0.00000000E+00
  0.00000000E+00  0.00000000E+00  0.00000000E+00
  0.00000000E+00  0.00000000E+00  0.00000000E+00
  0.00000000E+00  0.00000000E+00  0.00000000E+00
  0.00000000E+00  0.00000000E+00  0.00000000E+00
  0.00000000E+00  0.00000000E+00  0.00000000E+00
  0.00000000E+00  0.00000000E+00  0.00000000E+00
  0.00000000E+00  0.00000000E+00  0.00000000E+00
  0.00000000E+00  0.00000000E+00  0.00000000E+00
  0.00000000E+00  0.00000000E+00  0.00000000E+00
  0.00000000E+00  0.00000000E+00  0.00000000E+00
  0.00000000E+00  0.00000000E+00  0.00000000E+00
  0.00000000E+00  0.00000000E+00  0.00000000E+00
  0.00000000E+00  0.00000000E+00  0.00000000E+00
  0.00000000E+00  0.00000000E+00  0.00000000E+00
  0.00000000E+00  0.00000000E+00  0.00000000E+00
  0.00000000E+00  0.00000000E+00  0.00000000E+00
  0.00000000E+00  0.00000000E+00  0.00000000E+00
  0.00000000E+00  0.00000000E+00  0.00000000E+00
  0.00000000E+00  0.00000000E+00  0.00000000E+00
  0.00000000E+00  0.00000000E+00  0.00000000E+00
  0.00000000E+00  0.00000000E+00  0.00000000E+00
  0.00000000E+00  0.00000000E+00  0.00000000E+00
  0.00000000E+00  0.00000000E+00  0.00000000E+00
  0.00000000E+00  0.00000000E+00  0.00000000E+00
  0.00000000E+00  0.00000000E+00  0.00000000E+00
  0.00000000E+00  0.00000000E+00  0.00000000E+00
  0.00000000E+00  0.00000000E+00  0.00000000E+00
  0.00000000E+00  0.00000000E+00  0.00000000E+00
  0.00000000E+00  0.00000000E+00  0.00000000E+00
  0.00000000E+00  0.00000000E+00  0.00000000E+00
  0.00000000E+00  0.00000000E+00  0.00000000E+00
  0.00000000E+00  0.00000000E+00  0.00000000E+00
  0.00000000E+00  0.00000000E+00  0.00000000E+00
  0.00000000E+00  0.00000000E+00  0.00000000E+00
  0.00000000E+00  0.00000000E+00  0.00000000E+00
  0.00000000E+00  0.00000000E+00  0.00000000E+00
  0.00000000E+00  0.00000000E+00  0.00000000E+00
  0.00000000E+00  0.00000000E+00  0.00000000E+00
  0.00000000E+00  0.00000000E+00  0.00000000E+00
  0.00000000E+00  0.00000000E+00  0.00000000E+00
  0.00000000E+00  0.00000000E+00  0.00000000E+00
  0.00000000E+00  0.00000000E+00  0.00000000E+00
  0.00000000E+00  0.00000000E+00  0.00000000E+00
  0.00000000E+00  0.00000000E+00  0.00000000E+00
  0.00000000E+00  0.00000000E+00  0.00000000E+00
  0.00000000E+00  0.00000000E+00  0.00000000E+00
  0.00000000E+00  0.00000000E+00  0.00000000E+00
  0.00000000E+00  0.00000000E+00  0.00000000E+00
  0.00000000E+00  0.00000000E+00  0.00000000E+00
  0.00000000E+00  0.00000000E+00  0.00000000E+00
  0.00000000E+00  0.00000000E+00  0.00000000E+00
  0.00000000E+00  0.00000000E+00  0.00000000E+00
  0.00000000E+00  0.00000000E+00  0.00000000E+00
  0.00000000E+00  0.00000000E+00  0.00000000E+00
  0.00000000E+00  0.00000000E+00  0.00000000E+00
  0.00000000E+00  0.00000000E+00  0.00000000E+00
  0.00000000E+00  0.00000000E+00  0.00000000E+00
  0.00000000E+00  0.00000000E+00  0.00000000E+00
  0.00000000E+00  0.00000000E+00  0.00000000E+00
  0.00000000E+00  0.00000000E+00  0.00000000E+00
  0.00000000E+00  0.00000000E+00  0.00000000E+00
  0.00000000E+00  0.00000000E+00  0.00000000E+00
  0.00000000E+00  0.00000000E+00  0.00000000E+00
  0.00000000E+00  0.00000000E+00  0.00000000E+00
  0.00000000E+00  0.00000000E+00  0.00000000E+00
  0.00000000E+00  0.00000000E+00  0.00000000E+00
  0.00000000E+00  0.00000000E+00  0.00000000E+00
  0.00000000E+00  0.00000000E+00  0.00000000E+00
  0.00000000E+00  0.00000000E+00  0.00000000E+00
  0.00000000E+00  0.00000000E+00  0.00000000E+00
  0.00000000E+00  0.00000000E+00  0.00000000E+00
  0.00000000E+00  0.00000000E+00  0.00000000E+00
  0.00000000E+00  0.00000000E+00  0.00000000E+00
  0.00000000E+00  0.00000000E+00  0.00000000E+00
  0.00000000E+00  0.00000000E+00  0.00000000E+00
  0.00000000E+00  0.00000000E+00  0.00000000E+00
  0.00000000E+00  0.00000000E+00  0.00000000E+00
  0.00000000E+00  0.00000000E+00  0.00000000E+00
  0.00000000E+00  0.00000000E+00  0.00000000E+00
  0.00000000E+00  0.00000000E+00  0.00000000E+00
  0.00000000E+00  0.00000000E+00  0.00000000E+00
  0.00000000E+00  0.00000000E+00  0.00000000E+00
  0.00000000E+00  0.00000000E+00  0.00000000E+00
  0.00000000E+00  0.00000000E+00  0.00000000E+00
  0.00000000E+00  0.00000000E+00  0.00000000E+00
  0.00000000E+00  0.00000000E+00  0.00000000E+00
  0.00000000E+00  0.00000000E+00  0.00000000E+00
  0.00000000E+00  0.00000000E+00  0.00000000E+00
  0.00000000E+00  0.00000000E+00  0.00000000E+00
  0.00000000E+00  0.00000000E+00  0.00000000E+00
  0.00000000E+00  0.00000000E+00  0.00000000E+00
  0.00000000E+00  0.00000000E+00  0.00000000E+00
  0.00000000E+00  0.00000000E+00  0.00000000E+00
  0.00000000E+00  0.00000000E+00  0.00000000E+00
  0.00000000E+00  0.00000000E+00  0.00000000E+00
  0.00000000E+00  0.00000000E+00  0.00000000E+00
  0.00000000E+00  0.00000000E+00  0.00000000E+00
  0.00000000E+00  0.00000000E+00  0.00000000E+00
  0.00000000E+00  0.00000000E+00  0.00000000E+00
  0.00000000E+00  0.00000000E+00  0.00000000E+00
  0.00000000E+00  0.00000000E+00  0.00000000E+00
  0.00000000E+00  0.00000000E+00  0.00000000E+00
  0.00000000E+00  0.00000000E+00  0.00000000E+00
  0.00000000E+00  0.00000000E+00  0.00000000E+00
  0.00000000E+00  0.00000000E+00  0.00000000E+00
  0.00000000E+00  0.00000000E+00  0.00000000E+00
  0.00000000E+00  0.00000000E+00  0.00000000E+00
  0.00000000E+00  0.00000000E+00  0.00000000E+00
  0.00000000E+00  0.00000000E+00  0.00000000E+00
  0.00000000E+00  0.00000000E+00  0.00000000E+00
  0.00000000E+00  0.00000000E+00  0.00000000E+00
