Al Fe  C  O  H                          
   1.00000000000000     
    14.3189123190275875    0.0000000000000000    0.0000000000000000
     7.1594561595137938   12.4005418228398376    0.0000000000000000
   0.0000000000   0.0000000000   31.9936319892
   Al   Fe   C    O    H 
   123     2     1     1     1
Selective dynamics
Direct
0.9712163953782351   0.1676476216565135   0.3125622000   F   F   F
0.1712163953782380   0.1676476216565135   0.3125622000   F   F   F
0.3712163953782408   0.1676476216565135   0.3125622000   F   F   F
0.5712163953782365   0.1676476216565135   0.3125622000   F   F   F
0.7712163953782394   0.1676476216565135   0.3125622000   F   F   F
0.9712163953782351   0.3676476216565163   0.3125622000   F   F   F
0.1712163953782380   0.3676476216565163   0.3125622000   F   F   F
0.3712163953782408   0.3676476216565163   0.3125622000   F   F   F
0.5712163953782365   0.3676476216565163   0.3125622000   F   F   F
0.7712163953782394   0.3676476216565163   0.3125622000   F   F   F
0.9712163953782351   0.5676476216565121   0.3125622000   F   F   F
0.1712163953782380   0.5676476216565121   0.3125622000   F   F   F
0.3712163953782408   0.5676476216565121   0.3125622000   F   F   F
0.5712163953782365   0.5676476216565121   0.3125622000   F   F   F
0.7712163953782394   0.5676476216565121   0.3125622000   F   F   F
0.9712163953782351   0.7676476216565149   0.3125622000   F   F   F
0.1712163953782380   0.7676476216565149   0.3125622000   F   F   F
0.3712163953782408   0.7676476216565149   0.3125622000   F   F   F
0.5712163953782365   0.7676476216565149   0.3125622000   F   F   F
0.7712163953782394   0.7676476216565149   0.3125622000   F   F   F
0.9712163953782351   0.9676476216565177   0.3125622000   F   F   F
0.1712163953782380   0.9676476216565177   0.3125622000   F   F   F
0.3712163953782408   0.9676476216565177   0.3125622000   F   F   F
0.5712163953782365   0.9676476216565177   0.3125622000   F   F   F
0.7712163953782394   0.9676476216565177   0.3125622000   F   F   F
0.0378830620449051   0.0343142883231806   0.3856476374   F   F   F
0.2378830620449079   0.0343142883231806   0.3856476374   F   F   F
0.4378830620449037   0.0343142883231806   0.3856476374   F   F   F
0.6378830620449065   0.0343142883231806   0.3856476374   F   F   F
0.8378830620449023   0.0343142883231806   0.3856476374   F   F   F
0.0378830620449051   0.2343142883231835   0.3856476374   F   F   F
0.2378830620449079   0.2343142883231835   0.3856476374   F   F   F
0.4378830620449037   0.2343142883231835   0.3856476374   F   F   F
0.6378830620449065   0.2343142883231835   0.3856476374   F   F   F
0.8378830620449023   0.2343142883231835   0.3856476374   F   F   F
0.0378830620449051   0.4343142883231792   0.3856476374   F   F   F
0.2378830620449079   0.4343142883231792   0.3856476374   F   F   F
0.4378830620449037   0.4343142883231792   0.3856476374   F   F   F
0.6378830620449065   0.4343142883231792   0.3856476374   F   F   F
0.8378830620449023   0.4343142883231792   0.3856476374   F   F   F
0.0378830620449051   0.6343142883231820   0.3856476374   F   F   F
0.2378830620449079   0.6343142883231820   0.3856476374   F   F   F
0.4378830620449037   0.6343142883231820   0.3856476374   F   F   F
0.6378830620449065   0.6343142883231820   0.3856476374   F   F   F
0.8378830620449023   0.6343142883231820   0.3856476374   F   F   F
0.0378830620449051   0.8343142883231778   0.3856476374   F   F   F
0.2378830620449079   0.8343142883231778   0.3856476374   F   F   F
0.4378830620449037   0.8343142883231778   0.3856476374   F   F   F
0.6378830620449065   0.8343142883231778   0.3856476374   F   F   F
0.8378830620449023   0.8343142883231778   0.3856476374   F   F   F
0.1045497287115751   0.1009809549898506   0.4587330749   F   F   F
0.3045497287115708   0.1009809549898506   0.4587330749   F   F   F
0.5045497287115737   0.1009809549898506   0.4587330749   F   F   F
0.7045497287115694   0.1009809549898506   0.4587330749   F   F   F
0.9045497287115722   0.1009809549898506   0.4587330749   F   F   F
0.1045497287115751   0.3009809549898463   0.4587330749   F   F   F
0.3045497287115708   0.3009809549898463   0.4587330749   F   F   F
0.5045497287115737   0.3009809549898463   0.4587330749   F   F   F
0.7045497287115694   0.3009809549898463   0.4587330749   F   F   F
0.9045497287115722   0.3009809549898463   0.4587330749   F   F   F
0.1045497287115751   0.5009809549898492   0.4587330749   F   F   F
0.3045497287115708   0.5009809549898492   0.4587330749   F   F   F
0.5045497287115737   0.5009809549898492   0.4587330749   F   F   F
0.7045497287115694   0.5009809549898492   0.4587330749   F   F   F
0.9045497287115722   0.5009809549898492   0.4587330749   F   F   F
0.1045497287115751   0.7009809549898449   0.4587330749   F   F   F
0.3045497287115708   0.7009809549898449   0.4587330749   F   F   F
0.5045497287115737   0.7009809549898449   0.4587330749   F   F   F
0.7045497287115694   0.7009809549898449   0.4587330749   F   F   F
0.9045497287115722   0.7009809549898449   0.4587330749   F   F   F
0.1045497287115751   0.9009809549898478   0.4587330749   F   F   F
0.3045497287115708   0.9009809549898478   0.4587330749   F   F   F
0.5045497287115737   0.9009809549898478   0.4587330749   F   F   F
0.7045497287115694   0.9009809549898478   0.4587330749   F   F   F
0.9045497287115722   0.9009809549898478   0.4587330749   F   F   F
0.9701651518541957   0.1696094858819816   0.5316596531   T   T   T
0.1739521662569431   0.1686449381166619   0.5320508823   T   T   T
0.3731827341051113   0.1681415278327941   0.5308730260   T   T   T
0.5688955257976586   0.1680398517598722   0.5307898060   T   T   T
0.7675300513548099   0.1686405485515896   0.5320629439   T   T   T
0.9729325493626353   0.3684753751429461   0.5319484911   T   T   T
0.1729433300690522   0.3691843660522647   0.5309072235   T   T   T
0.3674700548584790   0.3751195397707310   0.5315231267   T   T   T
0.5682553558787207   0.3691809359538947   0.5305227618   T   T   T
0.7685883068345958   0.3686676951246766   0.5319323350   T   T   T
0.9681610747171200   0.5691548749983063   0.5306165889   T   T   T
0.1692595102958372   0.5662771844036485   0.5302394841   T   T   T
0.3740927958151454   0.5664530552022808   0.5299134460   T   T   T
0.5726128577593081   0.5695286625594478   0.5305364512   T   T   T
0.7714732905347146   0.5672705953458632   0.5318001067   T   T   T
0.9713056518681830   0.7660379176083100   0.5322096765   T   T   T
0.1729180131654145   0.7639589000917119   0.5318500388   T   T   T
0.3727235407872518   0.7662355669403839   0.5321488474   T   T   T
0.5717205471801614   0.7687723638635002   0.5321495831   T   T   T
0.7699030452348904   0.7686880265593105   0.5321538727   T   T   T
0.9717205771040101   0.9664715355556611   0.5317000120   T   T   T
0.1719623949722041   0.9663459670894118   0.5316929273   T   T   T
0.3719157192568335   0.9673580665361180   0.5321434848   T   T   T
0.5708925042282343   0.9685505993459741   0.5323384123   T   T   T
0.7709311401991716   0.9673606532009074   0.5321812062   T   T   T
0.0380238353378064   0.0340389728784617   0.6048039928   T   T   T
0.2391297302639570   0.0343078924796833   0.6053591373   T   T   T
0.4348653003584322   0.0433605329288769   0.6055000429   T   T   T
0.6318560744894692   0.0438029272374760   0.6056089699   T   T   T
0.8367776036209807   0.0343611381084745   0.6053883310   T   T   T
0.0409828984810999   0.2365888201879228   0.6051563336   T   T   T
0.2410304407252587   0.2460877082304957   0.6041867215   T   T   T
0.4236830648411903   0.2635246599969682   0.6030443436   T   T   T
0.6235233727676034   0.2463821628593970   0.6039723799   T   T   T
0.8325061006360505   0.2367740610870331   0.6051861490   T   T   T
0.0488323717924785   0.4355171844541126   0.6040414513   T   T   T
0.6254503390031272   0.4359319198439984   0.6037902173   T   T   T
0.8381174928675145   0.4338457091082693   0.6055999435   T   T   T
0.0488120574429038   0.6259620542043194   0.6039279816   T   T   T
0.2486791157323747   0.6130883464975327   0.6014682965   T   T   T
0.4352913420994287   0.6260221043615589   0.6036260081   T   T   T
0.6359396829290507   0.6315230732472963   0.6053351954   T   T   T
0.8426932352585457   0.6314027109390479   0.6053406686   T   T   T
0.0419413381689221   0.8284095321824844   0.6054371972   T   T   T
0.2399964945822349   0.8282528155875002   0.6054272788   T   T   T
0.4380790701923304   0.8341471413878118   0.6063724628   T   T   T
0.6375275931526387   0.8355593796166184   0.6069402885   T   T   T
0.8383918450184064   0.8340657963387119   0.6063869696   T   T   T
0.2394090875543987   0.4390899091930411   0.5943132690   T   T   T
0.4335350001291827   0.4388454736948478   0.5930168368   T   T   T
0.3359549506443410   0.4423193831207269   0.6328825258   T   T   T
0.3400898567237375   0.4445136458850025   0.6753751652   T   T   T
0.2767799027327415   0.4462899751176072   0.6874378000   T   T   T
 
  0.00000000E+00  0.00000000E+00  0.00000000E+00
  0.00000000E+00  0.00000000E+00  0.00000000E+00
  0.00000000E+00  0.00000000E+00  0.00000000E+00
  0.00000000E+00  0.00000000E+00  0.00000000E+00
  0.00000000E+00  0.00000000E+00  0.00000000E+00
  0.00000000E+00  0.00000000E+00  0.00000000E+00
  0.00000000E+00  0.00000000E+00  0.00000000E+00
  0.00000000E+00  0.00000000E+00  0.00000000E+00
  0.00000000E+00  0.00000000E+00  0.00000000E+00
  0.00000000E+00  0.00000000E+00  0.00000000E+00
  0.00000000E+00  0.00000000E+00  0.00000000E+00
  0.00000000E+00  0.00000000E+00  0.00000000E+00
  0.00000000E+00  0.00000000E+00  0.00000000E+00
  0.00000000E+00  0.00000000E+00  0.00000000E+00
  0.00000000E+00  0.00000000E+00  0.00000000E+00
  0.00000000E+00  0.00000000E+00  0.00000000E+00
  0.00000000E+00  0.00000000E+00  0.00000000E+00
  0.00000000E+00  0.00000000E+00  0.00000000E+00
  0.00000000E+00  0.00000000E+00  0.00000000E+00
  0.00000000E+00  0.00000000E+00  0.00000000E+00
  0.00000000E+00  0.00000000E+00  0.00000000E+00
  0.00000000E+00  0.00000000E+00  0.00000000E+00
  0.00000000E+00  0.00000000E+00  0.00000000E+00
  0.00000000E+00  0.00000000E+00  0.00000000E+00
  0.00000000E+00  0.00000000E+00  0.00000000E+00
  0.00000000E+00  0.00000000E+00  0.00000000E+00
  0.00000000E+00  0.00000000E+00  0.00000000E+00
  0.00000000E+00  0.00000000E+00  0.00000000E+00
  0.00000000E+00  0.00000000E+00  0.00000000E+00
  0.00000000E+00  0.00000000E+00  0.00000000E+00
  0.00000000E+00  0.00000000E+00  0.00000000E+00
  0.00000000E+00  0.00000000E+00  0.00000000E+00
  0.00000000E+00  0.00000000E+00  0.00000000E+00
  0.00000000E+00  0.00000000E+00  0.00000000E+00
  0.00000000E+00  0.00000000E+00  0.00000000E+00
  0.00000000E+00  0.00000000E+00  0.00000000E+00
  0.00000000E+00  0.00000000E+00  0.00000000E+00
  0.00000000E+00  0.00000000E+00  0.00000000E+00
  0.00000000E+00  0.00000000E+00  0.00000000E+00
  0.00000000E+00  0.00000000E+00  0.00000000E+00
  0.00000000E+00  0.00000000E+00  0.00000000E+00
  0.00000000E+00  0.00000000E+00  0.00000000E+00
  0.00000000E+00  0.00000000E+00  0.00000000E+00
  0.00000000E+00  0.00000000E+00  0.00000000E+00
  0.00000000E+00  0.00000000E+00  0.00000000E+00
  0.00000000E+00  0.00000000E+00  0.00000000E+00
  0.00000000E+00  0.00000000E+00  0.00000000E+00
  0.00000000E+00  0.00000000E+00  0.00000000E+00
  0.00000000E+00  0.00000000E+00  0.00000000E+00
  0.00000000E+00  0.00000000E+00  0.00000000E+00
  0.00000000E+00  0.00000000E+00  0.00000000E+00
  0.00000000E+00  0.00000000E+00  0.00000000E+00
  0.00000000E+00  0.00000000E+00  0.00000000E+00
  0.00000000E+00  0.00000000E+00  0.00000000E+00
  0.00000000E+00  0.00000000E+00  0.00000000E+00
  0.00000000E+00  0.00000000E+00  0.00000000E+00
  0.00000000E+00  0.00000000E+00  0.00000000E+00
  0.00000000E+00  0.00000000E+00  0.00000000E+00
  0.00000000E+00  0.00000000E+00  0.00000000E+00
  0.00000000E+00  0.00000000E+00  0.00000000E+00
  0.00000000E+00  0.00000000E+00  0.00000000E+00
  0.00000000E+00  0.00000000E+00  0.00000000E+00
  0.00000000E+00  0.00000000E+00  0.00000000E+00
  0.00000000E+00  0.00000000E+00  0.00000000E+00
  0.00000000E+00  0.00000000E+00  0.00000000E+00
  0.00000000E+00  0.00000000E+00  0.00000000E+00
  0.00000000E+00  0.00000000E+00  0.00000000E+00
  0.00000000E+00  0.00000000E+00  0.00000000E+00
  0.00000000E+00  0.00000000E+00  0.00000000E+00
  0.00000000E+00  0.00000000E+00  0.00000000E+00
  0.00000000E+00  0.00000000E+00  0.00000000E+00
  0.00000000E+00  0.00000000E+00  0.00000000E+00
  0.00000000E+00  0.00000000E+00  0.00000000E+00
  0.00000000E+00  0.00000000E+00  0.00000000E+00
  0.00000000E+00  0.00000000E+00  0.00000000E+00
  0.00000000E+00  0.00000000E+00  0.00000000E+00
  0.00000000E+00  0.00000000E+00  0.00000000E+00
  0.00000000E+00  0.00000000E+00  0.00000000E+00
  0.00000000E+00  0.00000000E+00  0.00000000E+00
  0.00000000E+00  0.00000000E+00  0.00000000E+00
  0.00000000E+00  0.00000000E+00  0.00000000E+00
  0.00000000E+00  0.00000000E+00  0.00000000E+00
  0.00000000E+00  0.00000000E+00  0.00000000E+00
  0.00000000E+00  0.00000000E+00  0.00000000E+00
  0.00000000E+00  0.00000000E+00  0.00000000E+00
  0.00000000E+00  0.00000000E+00  0.00000000E+00
  0.00000000E+00  0.00000000E+00  0.00000000E+00
  0.00000000E+00  0.00000000E+00  0.00000000E+00
  0.00000000E+00  0.00000000E+00  0.00000000E+00
  0.00000000E+00  0.00000000E+00  0.00000000E+00
  0.00000000E+00  0.00000000E+00  0.00000000E+00
  0.00000000E+00  0.00000000E+00  0.00000000E+00
  0.00000000E+00  0.00000000E+00  0.00000000E+00
  0.00000000E+00  0.00000000E+00  0.00000000E+00
  0.00000000E+00  0.00000000E+00  0.00000000E+00
  0.00000000E+00  0.00000000E+00  0.00000000E+00
  0.00000000E+00  0.00000000E+00  0.00000000E+00
  0.00000000E+00  0.00000000E+00  0.00000000E+00
  0.00000000E+00  0.00000000E+00  0.00000000E+00
  0.00000000E+00  0.00000000E+00  0.00000000E+00
  0.00000000E+00  0.00000000E+00  0.00000000E+00
  0.00000000E+00  0.00000000E+00  0.00000000E+00
  0.00000000E+00  0.00000000E+00  0.00000000E+00
  0.00000000E+00  0.00000000E+00  0.00000000E+00
  0.00000000E+00  0.00000000E+00  0.00000000E+00
  0.00000000E+00  0.00000000E+00  0.00000000E+00
  0.00000000E+00  0.00000000E+00  0.00000000E+00
  0.00000000E+00  0.00000000E+00  0.00000000E+00
  0.00000000E+00  0.00000000E+00  0.00000000E+00
  0.00000000E+00  0.00000000E+00  0.00000000E+00
  0.00000000E+00  0.00000000E+00  0.00000000E+00
  0.00000000E+00  0.00000000E+00  0.00000000E+00
  0.00000000E+00  0.00000000E+00  0.00000000E+00
  0.00000000E+00  0.00000000E+00  0.00000000E+00
  0.00000000E+00  0.00000000E+00  0.00000000E+00
  0.00000000E+00  0.00000000E+00  0.00000000E+00
  0.00000000E+00  0.00000000E+00  0.00000000E+00
  0.00000000E+00  0.00000000E+00  0.00000000E+00
  0.00000000E+00  0.00000000E+00  0.00000000E+00
  0.00000000E+00  0.00000000E+00  0.00000000E+00
  0.00000000E+00  0.00000000E+00  0.00000000E+00
  0.00000000E+00  0.00000000E+00  0.00000000E+00
  0.00000000E+00  0.00000000E+00  0.00000000E+00
  0.00000000E+00  0.00000000E+00  0.00000000E+00
  0.00000000E+00  0.00000000E+00  0.00000000E+00
  0.00000000E+00  0.00000000E+00  0.00000000E+00
  0.00000000E+00  0.00000000E+00  0.00000000E+00
  0.00000000E+00  0.00000000E+00  0.00000000E+00
