Al Fe 
 1.0000000000000000
    14.3189123190275875    0.0000000000000000    0.0000000000000000
     7.1594561595137938   12.4005418228398376    0.0000000000000000
   0.0000000000   0.0000000000   29.4101768436
 Al  Fe 
 123   2
Selective dynamics
Cartesian
15.0348586809102756   2.0666282081794192   10.0000000000   F   F   F
3.5797288256882474   2.0666282081794192   10.0000000000   F   F   F
6.4435112894938058   2.0666282081794192   10.0000000000   F   F   F
9.3072937532992626   2.0666282081794192   10.0000000000   F   F   F
12.1710762171048188   2.0666282081794192   10.0000000000   F   F   F
16.4667499128130537   4.5467365727474220   10.0000000000   F   F   F
5.0116200575910259   4.5467365727474220   10.0000000000   F   F   F
7.8754025213965839   4.5467365727474220   10.0000000000   F   F   F
10.7391849852020407   4.5467365727474220   10.0000000000   F   F   F
13.6029674490075987   4.5467365727474220   10.0000000000   F   F   F
17.8986411447157820   7.0268449373153361   10.0000000000   F   F   F
6.4435112894937543   7.0268449373153361   10.0000000000   F   F   F
9.3072937532993123   7.0268449373153361   10.0000000000   F   F   F
12.1710762171047691   7.0268449373153361   10.0000000000   F   F   F
15.0348586809103271   7.0268449373153361   10.0000000000   F   F   F
19.3305323766185602   9.5069533018833390   10.0000000000   F   F   F
7.8754025213965333   9.5069533018833390   10.0000000000   F   F   F
10.7391849852020904   9.5069533018833390   10.0000000000   F   F   F
13.6029674490075472   9.5069533018833390   10.0000000000   F   F   F
16.4667499128131034   9.5069533018833390   10.0000000000   F   F   F
20.7624236085213418   11.9870616664513427   10.0000000000   F   F   F
9.3072937532993123   11.9870616664513427   10.0000000000   F   F   F
12.1710762171048703   11.9870616664513427   10.0000000000   F   F   F
15.0348586809103271   11.9870616664513427   10.0000000000   F   F   F
17.8986411447158851   11.9870616664513427   10.0000000000   F   F   F
0.7159463618827395   0.4132226318007799   12.3382685902   F   F   F
3.5797288256882971   0.4132226318007799   12.3382685902   F   F   F
6.4435112894937543   0.4132226318007799   12.3382685902   F   F   F
9.3072937532993123   0.4132226318007799   12.3382685902   F   F   F
12.1710762171047691   0.4132226318007799   12.3382685902   F   F   F
2.1478375937855185   2.8933309963687819   12.3382685902   F   F   F
5.0116200575910756   2.8933309963687819   12.3382685902   F   F   F
7.8754025213965333   2.8933309963687819   12.3382685902   F   F   F
10.7391849852020904   2.8933309963687819   12.3382685902   F   F   F
13.6029674490075472   2.8933309963687819   12.3382685902   F   F   F
3.5797288256882469   5.3734393609366977   12.3382685902   F   F   F
6.4435112894938040   5.3734393609366977   12.3382685902   F   F   F
9.3072937532992626   5.3734393609366977   12.3382685902   F   F   F
12.1710762171048188   5.3734393609366977   12.3382685902   F   F   F
15.0348586809102756   5.3734393609366977   12.3382685902   F   F   F
5.0116200575910259   7.8535477255046997   12.3382685902   F   F   F
7.8754025213965839   7.8535477255046997   12.3382685902   F   F   F
10.7391849852020407   7.8535477255046997   12.3382685902   F   F   F
13.6029674490075987   7.8535477255046997   12.3382685902   F   F   F
16.4667499128130537   7.8535477255046997   12.3382685902   F   F   F
6.4435112894937543   10.3336560900726155   12.3382685902   F   F   F
9.3072937532993123   10.3336560900726155   12.3382685902   F   F   F
12.1710762171047691   10.3336560900726155   12.3382685902   F   F   F
15.0348586809103271   10.3336560900726155   12.3382685902   F   F   F
17.8986411447157856   10.3336560900726155   12.3382685902   F   F   F
2.1478375937855700   1.2399254199901437   14.6765371804   F   F   F
5.0116200575910259   1.2399254199901437   14.6765371804   F   F   F
7.8754025213965848   1.2399254199901437   14.6765371804   F   F   F
10.7391849852020407   1.2399254199901437   14.6765371804   F   F   F
13.6029674490075987   1.2399254199901437   14.6765371804   F   F   F
3.5797288256882980   3.7200337845580580   14.6765371804   F   F   F
6.4435112894937543   3.7200337845580580   14.6765371804   F   F   F
9.3072937532993123   3.7200337845580580   14.6765371804   F   F   F
12.1710762171047691   3.7200337845580580   14.6765371804   F   F   F
15.0348586809103271   3.7200337845580580   14.6765371804   F   F   F
5.0116200575910774   6.2001421491260613   14.6765371804   F   F   F
7.8754025213965342   6.2001421491260613   14.6765371804   F   F   F
10.7391849852020922   6.2001421491260613   14.6765371804   F   F   F
13.6029674490075490   6.2001421491260613   14.6765371804   F   F   F
16.4667499128131070   6.2001421491260613   14.6765371804   F   F   F
6.4435112894938058   8.6802505136939736   14.6765371804   F   F   F
9.3072937532992626   8.6802505136939736   14.6765371804   F   F   F
12.1710762171048206   8.6802505136939736   14.6765371804   F   F   F
15.0348586809102773   8.6802505136939736   14.6765371804   F   F   F
17.8986411447158353   8.6802505136939736   14.6765371804   F   F   F
7.8754025213965848   11.1603588782619774   14.6765371804   F   F   F
10.7391849852020407   11.1603588782619774   14.6765371804   F   F   F
13.6029674490076005   11.1603588782619774   14.6765371804   F   F   F
16.4667499128130572   11.1603588782619774   14.6765371804   F   F   F
19.3305323766186135   11.1603588782619774   14.6765371804   F   F   F
15.0348595500891928   2.0713139809283039   17.0061446214   T   T   T
3.6069881627578844   2.0623927030658411   17.0124745172   T   T   T
6.4809839820628818   2.0865181177490877   16.9924023870   T   T   T
9.2698205139014078   2.0865202051767513   16.9923577836   T   T   T
12.1438455287086793   2.0623854806776025   17.0124735976   T   T   T
16.4720724258800928   4.5483693597015646   17.0034689145   T   T   T
5.0086891335453583   4.5455230521124186   16.9556423710   T   T   T
7.8754173050811538   4.6519877895960349   17.0405199570   T   T   T
10.7420138969284746   4.5455781296316662   16.9557193853   T   T   T
13.5976802746983125   4.5483664508131225   17.0034725580   T   T   T
17.8554508172202233   7.0464501554929031   16.9733678583   T   T   T
6.3860245786159835   7.0010929437255989   16.9547831872   T   T   T
9.3647935698057516   7.0010415923852101   16.9547220680   T   T   T
12.2142484732580368   7.0464398075845009   16.9733547760   T   T   T
15.0348559343463712   7.0351289224245539   17.0091417133   T   T   T
19.3196790180695928   9.4843690042653002   17.0263799162   T   T   T
7.8753717759263768   9.4046144057778989   17.0461062579   T   T   T
10.7500633582796716   9.4843921410694882   17.0263779264   T   T   T
13.6140117737052471   9.5271923299414993   17.0227538574   T   T   T
16.4556519359196081   9.5271816377498872   17.0227628032   T   T   T
20.7701354363161670   11.9488473280542067   17.0190076596   T   T   T
9.2995907502115092   11.9488099843562630   17.0190122051   T   T   T
12.1730168910245062   11.9853421997528429   17.0213141096   T   T   T
15.0348675301026891   11.9981151695389840   17.0257314179   T   T   T
17.8967556082803405   11.9853498842252790   17.0212871936   T   T   T
0.7159545247549364   0.3966049976000870   19.3484070067   T   T   T
3.5909666139058865   0.4099804457026459   19.3569662047   T   T   T
6.4654157452430674   0.5228354531310755   19.3479702786   T   T   T
9.2853935357092805   0.5228360215521400   19.3479602765   T   T   T
12.1598528540434394   0.4100182376311564   19.3569864846   T   T   T
2.1771735217071466   2.9009804059634265   19.3459736011   T   T   T
5.1112864208164392   3.0162181359442375   19.3086919417   T   T   T
7.8753368163023882   3.3604521681298420   19.3761936851   T   T   T
10.6395291498071884   3.0161796091847184   19.3086842059   T   T   T
13.5736406276574719   2.9009925124524805   19.3459773390   T   T   T
3.6539235476267939   5.3774728788479020   19.2949997446   T   T   T
12.0968949306019802   5.3774443272704664   19.2949566170   T   T   T
15.0348437819382461   5.3708486624818077   19.3542143086   T   T   T
5.0939200033934418   7.7374178163127461   19.3174955656   T   T   T
7.8753454297561358   7.3613650572174505   19.2770353745   T   T   T
10.6568891831604446   7.7374676035865360   19.3174940567   T   T   T
13.5730000219120228   7.8373879211363420   19.3571826825   T   T   T
16.4966741765862430   7.8373884087662553   19.3571866845   T   T   T
6.4561200034499056   10.2456320640357070   19.3610401608   T   T   T
9.2946780878846731   10.2456194752439451   19.3610512508   T   T   T
12.1720695424858949   10.3380074787804119   19.3888492843   T   T   T
15.0348608841388440   10.3607899646829615   19.4101768436   T   T   T
17.8976431056718468   10.3380549548355809   19.3888315718   T   T   T
6.2596805700041340   5.3839582625700135   18.9119625478   T   T   T
9.4911747153894304   5.3839271041795795   18.9118767795   T   T   T
