Al Fe  O  H                             
   1.00000000000000     
    14.3189123190275875    0.0000000000000000    0.0000000000000000
     7.1594561595137938   12.4005418228398376    0.0000000000000000
   0.0000000000   0.0000000000   31.3487334227
   Al   Fe   O    H 
   123     2     1     1
Selective dynamics
Direct
0.9693887128397378   0.1676298147636999   0.3189921540   F   F   F
0.1693887128397407   0.1676298147636999   0.3189921540   F   F   F
0.3693887128397435   0.1676298147636999   0.3189921540   F   F   F
0.5693887128397392   0.1676298147636999   0.3189921540   F   F   F
0.7693887128397421   0.1676298147636999   0.3189921540   F   F   F
0.9693887128397378   0.3676298147637027   0.3189921540   F   F   F
0.1693887128397407   0.3676298147637027   0.3189921540   F   F   F
0.3693887128397435   0.3676298147637027   0.3189921540   F   F   F
0.5693887128397392   0.3676298147637027   0.3189921540   F   F   F
0.7693887128397421   0.3676298147637027   0.3189921540   F   F   F
0.9693887128397378   0.5676298147636984   0.3189921540   F   F   F
0.1693887128397407   0.5676298147636984   0.3189921540   F   F   F
0.3693887128397435   0.5676298147636984   0.3189921540   F   F   F
0.5693887128397392   0.5676298147636984   0.3189921540   F   F   F
0.7693887128397421   0.5676298147636984   0.3189921540   F   F   F
0.9693887128397378   0.7676298147637013   0.3189921540   F   F   F
0.1693887128397407   0.7676298147637013   0.3189921540   F   F   F
0.3693887128397435   0.7676298147637013   0.3189921540   F   F   F
0.5693887128397392   0.7676298147637013   0.3189921540   F   F   F
0.7693887128397421   0.7676298147637013   0.3189921540   F   F   F
0.9693887128397378   0.9676298147637041   0.3189921540   F   F   F
0.1693887128397407   0.9676298147637041   0.3189921540   F   F   F
0.3693887128397435   0.9676298147637041   0.3189921540   F   F   F
0.5693887128397392   0.9676298147637041   0.3189921540   F   F   F
0.7693887128397421   0.9676298147637041   0.3189921540   F   F   F
0.0360553795064078   0.0342964814303670   0.3935810875   F   F   F
0.2360553795064106   0.0342964814303670   0.3935810875   F   F   F
0.4360553795064064   0.0342964814303670   0.3935810875   F   F   F
0.6360553795064092   0.0342964814303670   0.3935810875   F   F   F
0.8360553795064050   0.0342964814303670   0.3935810875   F   F   F
0.0360553795064078   0.2342964814303699   0.3935810875   F   F   F
0.2360553795064106   0.2342964814303699   0.3935810875   F   F   F
0.4360553795064064   0.2342964814303699   0.3935810875   F   F   F
0.6360553795064092   0.2342964814303699   0.3935810875   F   F   F
0.8360553795064050   0.2342964814303699   0.3935810875   F   F   F
0.0360553795064078   0.4342964814303656   0.3935810875   F   F   F
0.2360553795064106   0.4342964814303656   0.3935810875   F   F   F
0.4360553795064064   0.4342964814303656   0.3935810875   F   F   F
0.6360553795064092   0.4342964814303656   0.3935810875   F   F   F
0.8360553795064050   0.4342964814303656   0.3935810875   F   F   F
0.0360553795064078   0.6342964814303684   0.3935810875   F   F   F
0.2360553795064106   0.6342964814303684   0.3935810875   F   F   F
0.4360553795064064   0.6342964814303684   0.3935810875   F   F   F
0.6360553795064092   0.6342964814303684   0.3935810875   F   F   F
0.8360553795064050   0.6342964814303684   0.3935810875   F   F   F
0.0360553795064078   0.8342964814303642   0.3935810875   F   F   F
0.2360553795064106   0.8342964814303642   0.3935810875   F   F   F
0.4360553795064064   0.8342964814303642   0.3935810875   F   F   F
0.6360553795064092   0.8342964814303642   0.3935810875   F   F   F
0.8360553795064050   0.8342964814303642   0.3935810875   F   F   F
0.1027220461730778   0.1009631480970370   0.4681700209   F   F   F
0.3027220461730735   0.1009631480970370   0.4681700209   F   F   F
0.5027220461730764   0.1009631480970370   0.4681700209   F   F   F
0.7027220461730721   0.1009631480970370   0.4681700209   F   F   F
0.9027220461730749   0.1009631480970370   0.4681700209   F   F   F
0.1027220461730778   0.3009631480970327   0.4681700209   F   F   F
0.3027220461730735   0.3009631480970327   0.4681700209   F   F   F
0.5027220461730764   0.3009631480970327   0.4681700209   F   F   F
0.7027220461730721   0.3009631480970327   0.4681700209   F   F   F
0.9027220461730749   0.3009631480970327   0.4681700209   F   F   F
0.1027220461730778   0.5009631480970356   0.4681700209   F   F   F
0.3027220461730735   0.5009631480970356   0.4681700209   F   F   F
0.5027220461730764   0.5009631480970356   0.4681700209   F   F   F
0.7027220461730721   0.5009631480970356   0.4681700209   F   F   F
0.9027220461730749   0.5009631480970356   0.4681700209   F   F   F
0.1027220461730778   0.7009631480970313   0.4681700209   F   F   F
0.3027220461730735   0.7009631480970313   0.4681700209   F   F   F
0.5027220461730764   0.7009631480970313   0.4681700209   F   F   F
0.7027220461730721   0.7009631480970313   0.4681700209   F   F   F
0.9027220461730749   0.7009631480970313   0.4681700209   F   F   F
0.1027220461730778   0.9009631480970341   0.4681700209   F   F   F
0.3027220461730735   0.9009631480970341   0.4681700209   F   F   F
0.5027220461730764   0.9009631480970341   0.4681700209   F   F   F
0.7027220461730721   0.9009631480970341   0.4681700209   F   F   F
0.9027220461730749   0.9009631480970341   0.4681700209   F   F   F
0.9692760675110613   0.1678586002386404   0.5422975913   T   T   T
0.1707800623638983   0.1671750819169035   0.5423730233   T   T   T
0.3720894712518142   0.1652806213444988   0.5414411832   T   T   T
0.5689335373922016   0.1652236070241751   0.5414502808   T   T   T
0.7682757936383249   0.1672741558351823   0.5423748914   T   T   T
0.9695263148520024   0.3676328867950256   0.5423673671   T   T   T
0.1697722955662390   0.3670744328029361   0.5411743326   T   T   T
0.3680613612617772   0.3700555474848380   0.5436325885   T   T   T
0.5697327302146348   0.3668884104790191   0.5411139828   T   T   T
0.7690643626469071   0.3676638640215992   0.5423835700   T   T   T
0.9667813522905668   0.5681796396891142   0.5411294999   T   T   T
0.1701774581992749   0.5644550307972345   0.5432948138   T   T   T
0.3713877174562504   0.5644217111080564   0.5433643300   T   T   T
0.5711809813016009   0.5681288804314067   0.5411573382   T   T   T
0.7692303591696243   0.5677493832394997   0.5422114861   T   T   T
0.9703313490140573   0.7654978084803762   0.5426794294   T   T   T
0.1710402440029111   0.7641805041875753   0.5426800572   T   T   T
0.3704706344857604   0.7653653115058495   0.5426888807   T   T   T
0.5695614557439833   0.7678245239947934   0.5424030820   T   T   T
0.7689131966609973   0.7679043157736989   0.5423940674   T   T   T
0.9700738517847435   0.9665505275485876   0.5426382944   T   T   T
0.1697764403168467   0.9665014377052765   0.5426626113   T   T   T
0.3696616320621132   0.9659298501705373   0.5426427792   T   T   T
0.5705614599287856   0.9652699673411537   0.5424775514   T   T   T
0.7707438024970471   0.9660134948731052   0.5426237963   T   T   T
0.0372854696206483   0.0317733282972273   0.6173964547   T   T   T
0.2368457108752402   0.0343460603541722   0.6177907293   T   T   T
0.4349836961012835   0.0375149689368793   0.6169390193   T   T   T
0.6338181264126324   0.0373481202909167   0.6169326432   T   T   T
0.8350574715897122   0.0345928054936189   0.6177900017   T   T   T
0.0367454299644631   0.2339915501610718   0.6170792055   T   T   T
0.2379152795318081   0.2396794381642587   0.6157549851   T   T   T
0.4299271076594313   0.2463912062661009   0.6152461211   T   T   T
0.6287954390572844   0.2393602343316685   0.6158304028   T   T   T
0.8356050899117557   0.2340946173211205   0.6170411444   T   T   T
0.0421019592568896   0.4328219304435603   0.6156821219   T   T   T
0.6313080618449659   0.4327776862332319   0.6157451777   T   T   T
0.8362877589649613   0.4336478485504806   0.6177909630   T   T   T
0.0394198762170808   0.6274579373652774   0.6155623874   T   T   T
0.2405501384198584   0.6245400014041440   0.6183589531   T   T   T
0.4389944860165422   0.6273318411395672   0.6156181973   T   T   T
0.6363041505382597   0.6322259304768434   0.6170730656   T   T   T
0.8374972188385493   0.6323294227073832   0.6170907096   T   T   T
0.0385177981855201   0.8292475720678010   0.6179966962   T   T   T
0.2382484466494382   0.8290917495469446   0.6179832760   T   T   T
0.4362168332138970   0.8326017336967311   0.6179606671   T   T   T
0.6358907045399732   0.8345294342122379   0.6182223249   T   T   T
0.8373534141360738   0.8327898505271497   0.6179491061   T   T   T
0.2282292809307211   0.4262225518283089   0.6053170205   T   T   T
0.4518975069003552   0.4259161045579231   0.6054656533   T   T   T
0.3020725344864363   0.5004427997076680   0.6504363338   T   T   T
0.3057979313511907   0.4908208334702256   0.6810078460   T   T   T
 
  0.00000000E+00  0.00000000E+00  0.00000000E+00
  0.00000000E+00  0.00000000E+00  0.00000000E+00
  0.00000000E+00  0.00000000E+00  0.00000000E+00
  0.00000000E+00  0.00000000E+00  0.00000000E+00
  0.00000000E+00  0.00000000E+00  0.00000000E+00
  0.00000000E+00  0.00000000E+00  0.00000000E+00
  0.00000000E+00  0.00000000E+00  0.00000000E+00
  0.00000000E+00  0.00000000E+00  0.00000000E+00
  0.00000000E+00  0.00000000E+00  0.00000000E+00
  0.00000000E+00  0.00000000E+00  0.00000000E+00
  0.00000000E+00  0.00000000E+00  0.00000000E+00
  0.00000000E+00  0.00000000E+00  0.00000000E+00
  0.00000000E+00  0.00000000E+00  0.00000000E+00
  0.00000000E+00  0.00000000E+00  0.00000000E+00
  0.00000000E+00  0.00000000E+00  0.00000000E+00
  0.00000000E+00  0.00000000E+00  0.00000000E+00
  0.00000000E+00  0.00000000E+00  0.00000000E+00
  0.00000000E+00  0.00000000E+00  0.00000000E+00
  0.00000000E+00  0.00000000E+00  0.00000000E+00
  0.00000000E+00  0.00000000E+00  0.00000000E+00
  0.00000000E+00  0.00000000E+00  0.00000000E+00
  0.00000000E+00  0.00000000E+00  0.00000000E+00
  0.00000000E+00  0.00000000E+00  0.00000000E+00
  0.00000000E+00  0.00000000E+00  0.00000000E+00
  0.00000000E+00  0.00000000E+00  0.00000000E+00
  0.00000000E+00  0.00000000E+00  0.00000000E+00
  0.00000000E+00  0.00000000E+00  0.00000000E+00
  0.00000000E+00  0.00000000E+00  0.00000000E+00
  0.00000000E+00  0.00000000E+00  0.00000000E+00
  0.00000000E+00  0.00000000E+00  0.00000000E+00
  0.00000000E+00  0.00000000E+00  0.00000000E+00
  0.00000000E+00  0.00000000E+00  0.00000000E+00
  0.00000000E+00  0.00000000E+00  0.00000000E+00
  0.00000000E+00  0.00000000E+00  0.00000000E+00
  0.00000000E+00  0.00000000E+00  0.00000000E+00
  0.00000000E+00  0.00000000E+00  0.00000000E+00
  0.00000000E+00  0.00000000E+00  0.00000000E+00
  0.00000000E+00  0.00000000E+00  0.00000000E+00
  0.00000000E+00  0.00000000E+00  0.00000000E+00
  0.00000000E+00  0.00000000E+00  0.00000000E+00
  0.00000000E+00  0.00000000E+00  0.00000000E+00
  0.00000000E+00  0.00000000E+00  0.00000000E+00
  0.00000000E+00  0.00000000E+00  0.00000000E+00
  0.00000000E+00  0.00000000E+00  0.00000000E+00
  0.00000000E+00  0.00000000E+00  0.00000000E+00
  0.00000000E+00  0.00000000E+00  0.00000000E+00
  0.00000000E+00  0.00000000E+00  0.00000000E+00
  0.00000000E+00  0.00000000E+00  0.00000000E+00
  0.00000000E+00  0.00000000E+00  0.00000000E+00
  0.00000000E+00  0.00000000E+00  0.00000000E+00
  0.00000000E+00  0.00000000E+00  0.00000000E+00
  0.00000000E+00  0.00000000E+00  0.00000000E+00
  0.00000000E+00  0.00000000E+00  0.00000000E+00
  0.00000000E+00  0.00000000E+00  0.00000000E+00
  0.00000000E+00  0.00000000E+00  0.00000000E+00
  0.00000000E+00  0.00000000E+00  0.00000000E+00
  0.00000000E+00  0.00000000E+00  0.00000000E+00
  0.00000000E+00  0.00000000E+00  0.00000000E+00
  0.00000000E+00  0.00000000E+00  0.00000000E+00
  0.00000000E+00  0.00000000E+00  0.00000000E+00
  0.00000000E+00  0.00000000E+00  0.00000000E+00
  0.00000000E+00  0.00000000E+00  0.00000000E+00
  0.00000000E+00  0.00000000E+00  0.00000000E+00
  0.00000000E+00  0.00000000E+00  0.00000000E+00
  0.00000000E+00  0.00000000E+00  0.00000000E+00
  0.00000000E+00  0.00000000E+00  0.00000000E+00
  0.00000000E+00  0.00000000E+00  0.00000000E+00
  0.00000000E+00  0.00000000E+00  0.00000000E+00
  0.00000000E+00  0.00000000E+00  0.00000000E+00
  0.00000000E+00  0.00000000E+00  0.00000000E+00
  0.00000000E+00  0.00000000E+00  0.00000000E+00
  0.00000000E+00  0.00000000E+00  0.00000000E+00
  0.00000000E+00  0.00000000E+00  0.00000000E+00
  0.00000000E+00  0.00000000E+00  0.00000000E+00
  0.00000000E+00  0.00000000E+00  0.00000000E+00
  0.00000000E+00  0.00000000E+00  0.00000000E+00
  0.00000000E+00  0.00000000E+00  0.00000000E+00
  0.00000000E+00  0.00000000E+00  0.00000000E+00
  0.00000000E+00  0.00000000E+00  0.00000000E+00
  0.00000000E+00  0.00000000E+00  0.00000000E+00
  0.00000000E+00  0.00000000E+00  0.00000000E+00
  0.00000000E+00  0.00000000E+00  0.00000000E+00
  0.00000000E+00  0.00000000E+00  0.00000000E+00
  0.00000000E+00  0.00000000E+00  0.00000000E+00
  0.00000000E+00  0.00000000E+00  0.00000000E+00
  0.00000000E+00  0.00000000E+00  0.00000000E+00
  0.00000000E+00  0.00000000E+00  0.00000000E+00
  0.00000000E+00  0.00000000E+00  0.00000000E+00
  0.00000000E+00  0.00000000E+00  0.00000000E+00
  0.00000000E+00  0.00000000E+00  0.00000000E+00
  0.00000000E+00  0.00000000E+00  0.00000000E+00
  0.00000000E+00  0.00000000E+00  0.00000000E+00
  0.00000000E+00  0.00000000E+00  0.00000000E+00
  0.00000000E+00  0.00000000E+00  0.00000000E+00
  0.00000000E+00  0.00000000E+00  0.00000000E+00
  0.00000000E+00  0.00000000E+00  0.00000000E+00
  0.00000000E+00  0.00000000E+00  0.00000000E+00
  0.00000000E+00  0.00000000E+00  0.00000000E+00
  0.00000000E+00  0.00000000E+00  0.00000000E+00
  0.00000000E+00  0.00000000E+00  0.00000000E+00
  0.00000000E+00  0.00000000E+00  0.00000000E+00
  0.00000000E+00  0.00000000E+00  0.00000000E+00
  0.00000000E+00  0.00000000E+00  0.00000000E+00
  0.00000000E+00  0.00000000E+00  0.00000000E+00
  0.00000000E+00  0.00000000E+00  0.00000000E+00
  0.00000000E+00  0.00000000E+00  0.00000000E+00
  0.00000000E+00  0.00000000E+00  0.00000000E+00
  0.00000000E+00  0.00000000E+00  0.00000000E+00
  0.00000000E+00  0.00000000E+00  0.00000000E+00
  0.00000000E+00  0.00000000E+00  0.00000000E+00
  0.00000000E+00  0.00000000E+00  0.00000000E+00
  0.00000000E+00  0.00000000E+00  0.00000000E+00
  0.00000000E+00  0.00000000E+00  0.00000000E+00
  0.00000000E+00  0.00000000E+00  0.00000000E+00
  0.00000000E+00  0.00000000E+00  0.00000000E+00
  0.00000000E+00  0.00000000E+00  0.00000000E+00
  0.00000000E+00  0.00000000E+00  0.00000000E+00
  0.00000000E+00  0.00000000E+00  0.00000000E+00
  0.00000000E+00  0.00000000E+00  0.00000000E+00
  0.00000000E+00  0.00000000E+00  0.00000000E+00
  0.00000000E+00  0.00000000E+00  0.00000000E+00
  0.00000000E+00  0.00000000E+00  0.00000000E+00
  0.00000000E+00  0.00000000E+00  0.00000000E+00
  0.00000000E+00  0.00000000E+00  0.00000000E+00
  0.00000000E+00  0.00000000E+00  0.00000000E+00
  0.00000000E+00  0.00000000E+00  0.00000000E+00
  0.00000000E+00  0.00000000E+00  0.00000000E+00
