 C  H 
 1.0000000000000000
    14.3189123190275875    0.0000000000000000    0.0000000000000000
     7.1594561595137938   12.4005418228398376    0.0000000000000000
   0.0000000000   0.0000000000   22.1491180000
 C   H  
   3   8
Cartesian
10.6999999999999797   6.2999999999999954   11.4921210000
10.6999999999999797   7.5668569999999900   10.6442190000
10.6999999999999797   5.0331429999999990   10.6442190000
9.8231019999999827   6.2999999999999954   12.1491180000
11.5768979999999768   6.2999999999999954   12.1491180000
10.6999999999999797   8.4661499999999865   11.2664710000
10.6999999999999797   4.1338500000000025   11.2664710000
11.5836189999999757   7.6042339999999893   10.0000000000
9.8163809999999820   7.6042339999999893   10.0000000000
9.8163809999999820   4.9957659999999997   10.0000000000
11.5836189999999757   4.9957659999999997   10.0000000000
