Al Fe  O  H                             
   1.00000000000000     
    14.3189123190275875    0.0000000000000000    0.0000000000000000
     7.1594561595137938   12.4005418228398376    0.0000000000000000
   0.0000000000   0.0000000000   31.3518884554
   Al   Fe   O    H 
   122     3     1     1
Selective dynamics
Direct
0.9666665393251961   0.1426666827703613   0.3189600529   F   F   F
0.1666665393251989   0.1426666827703613   0.3189600529   F   F   F
0.3666665393252018   0.1426666827703613   0.3189600529   F   F   F
0.5666665393251975   0.1426666827703613   0.3189600529   F   F   F
0.7666665393252003   0.1426666827703613   0.3189600529   F   F   F
0.9666665393251961   0.3426666827703642   0.3189600529   F   F   F
0.1666665393251989   0.3426666827703642   0.3189600529   F   F   F
0.3666665393252018   0.3426666827703642   0.3189600529   F   F   F
0.5666665393251975   0.3426666827703642   0.3189600529   F   F   F
0.7666665393252003   0.3426666827703642   0.3189600529   F   F   F
0.9666665393251961   0.5426666827703599   0.3189600529   F   F   F
0.1666665393251989   0.5426666827703599   0.3189600529   F   F   F
0.3666665393252018   0.5426666827703599   0.3189600529   F   F   F
0.5666665393251975   0.5426666827703599   0.3189600529   F   F   F
0.7666665393252003   0.5426666827703599   0.3189600529   F   F   F
0.9666665393251961   0.7426666827703627   0.3189600529   F   F   F
0.1666665393251989   0.7426666827703627   0.3189600529   F   F   F
0.3666665393252018   0.7426666827703627   0.3189600529   F   F   F
0.5666665393251975   0.7426666827703627   0.3189600529   F   F   F
0.7666665393252003   0.7426666827703627   0.3189600529   F   F   F
0.9666665393251961   0.9426666827703656   0.3189600529   F   F   F
0.1666665393251989   0.9426666827703656   0.3189600529   F   F   F
0.3666665393252018   0.9426666827703656   0.3189600529   F   F   F
0.5666665393251975   0.9426666827703656   0.3189600529   F   F   F
0.7666665393252003   0.9426666827703656   0.3189600529   F   F   F
0.0333332059918661   0.0093333494370285   0.3935414802   F   F   F
0.2333332059918689   0.0093333494370285   0.3935414802   F   F   F
0.4333332059918646   0.0093333494370285   0.3935414802   F   F   F
0.6333332059918675   0.0093333494370285   0.3935414802   F   F   F
0.8333332059918632   0.0093333494370285   0.3935414802   F   F   F
0.0333332059918661   0.2093333494370313   0.3935414802   F   F   F
0.2333332059918689   0.2093333494370313   0.3935414802   F   F   F
0.4333332059918646   0.2093333494370313   0.3935414802   F   F   F
0.6333332059918675   0.2093333494370313   0.3935414802   F   F   F
0.8333332059918632   0.2093333494370313   0.3935414802   F   F   F
0.0333332059918661   0.4093333494370270   0.3935414802   F   F   F
0.2333332059918689   0.4093333494370270   0.3935414802   F   F   F
0.4333332059918646   0.4093333494370270   0.3935414802   F   F   F
0.6333332059918675   0.4093333494370270   0.3935414802   F   F   F
0.8333332059918632   0.4093333494370270   0.3935414802   F   F   F
0.0333332059918661   0.6093333494370299   0.3935414802   F   F   F
0.2333332059918689   0.6093333494370299   0.3935414802   F   F   F
0.4333332059918646   0.6093333494370299   0.3935414802   F   F   F
0.6333332059918675   0.6093333494370299   0.3935414802   F   F   F
0.8333332059918632   0.6093333494370299   0.3935414802   F   F   F
0.0333332059918661   0.8093333494370256   0.3935414802   F   F   F
0.2333332059918689   0.8093333494370256   0.3935414802   F   F   F
0.4333332059918646   0.8093333494370256   0.3935414802   F   F   F
0.6333332059918675   0.8093333494370256   0.3935414802   F   F   F
0.8333332059918632   0.8093333494370256   0.3935414802   F   F   F
0.0999998726585360   0.0760000161036984   0.4681229075   F   F   F
0.2999998726585318   0.0760000161036984   0.4681229075   F   F   F
0.4999998726585346   0.0760000161036984   0.4681229075   F   F   F
0.6999998726585304   0.0760000161036984   0.4681229075   F   F   F
0.8999998726585332   0.0760000161036984   0.4681229075   F   F   F
0.0999998726585360   0.2760000161036942   0.4681229075   F   F   F
0.2999998726585318   0.2760000161036942   0.4681229075   F   F   F
0.4999998726585346   0.2760000161036942   0.4681229075   F   F   F
0.6999998726585304   0.2760000161036942   0.4681229075   F   F   F
0.8999998726585332   0.2760000161036942   0.4681229075   F   F   F
0.0999998726585360   0.4760000161036970   0.4681229075   F   F   F
0.2999998726585318   0.4760000161036970   0.4681229075   F   F   F
0.4999998726585346   0.4760000161036970   0.4681229075   F   F   F
0.6999998726585304   0.4760000161036970   0.4681229075   F   F   F
0.8999998726585332   0.4760000161036970   0.4681229075   F   F   F
0.0999998726585360   0.6760000161036928   0.4681229075   F   F   F
0.2999998726585318   0.6760000161036928   0.4681229075   F   F   F
0.4999998726585346   0.6760000161036928   0.4681229075   F   F   F
0.6999998726585304   0.6760000161036928   0.4681229075   F   F   F
0.8999998726585332   0.6760000161036928   0.4681229075   F   F   F
0.0999998726585360   0.8760000161036956   0.4681229075   F   F   F
0.2999998726585318   0.8760000161036956   0.4681229075   F   F   F
0.4999998726585346   0.8760000161036956   0.4681229075   F   F   F
0.6999998726585304   0.8760000161036956   0.4681229075   F   F   F
0.8999998726585332   0.8760000161036956   0.4681229075   F   F   F
0.9658824528814278   0.1435954639001414   0.5424903989   T   T   T
0.1675820941247974   0.1433712993821168   0.5423104205   T   T   T
0.3692043092879388   0.1411448022045194   0.5416448765   T   T   T
0.5657153406397911   0.1407343815688915   0.5411018609   T   T   T
0.7648408024507424   0.1436382405328363   0.5420417479   T   T   T
0.9668369901386490   0.3441820403326076   0.5424403867   T   T   T
0.1674028437031440   0.3442129297312704   0.5411008512   T   T   T
0.3667706436611052   0.3428505893709516   0.5438283295   T   T   T
0.5633464862548838   0.3450824652991303   0.5407041018   T   T   T
0.7637725895624804   0.3449255274022291   0.5424055104   T   T   T
0.9658030962037324   0.5452513368677634   0.5417642159   T   T   T
0.1688907051017685   0.5424279392465322   0.5426143377   T   T   T
0.3646208353330676   0.5400521801299636   0.5431209255   T   T   T
0.5650704408979107   0.5457749056021883   0.5412690017   T   T   T
0.7663895243608254   0.5434789101321355   0.5421748467   T   T   T
0.9652527297170991   0.7419929223198152   0.5416060336   T   T   T
0.1664638210946536   0.7433929728087857   0.5405178535   T   T   T
0.3690953874556380   0.7403611982839978   0.5418633409   T   T   T
0.5671453953517489   0.7434248846136811   0.5423950149   T   T   T
0.7649440267209001   0.7437665955272588   0.5423265476   T   T   T
0.9660505849499958   0.9422904250585012   0.5423052334   T   T   T
0.1677556611926929   0.9415591434627397   0.5423358164   T   T   T
0.3677211121037304   0.9418547423625788   0.5423841113   T   T   T
0.5667741830613402   0.9419783762582137   0.5429896400   T   T   T
0.7657670873754796   0.9425427112220252   0.5422811300   T   T   T
0.0331466155313602   0.0089686993190830   0.6169077648   T   T   T
0.2332242288515965   0.0082164742838383   0.6172957575   T   T   T
0.4306104288307396   0.0143967673004971   0.6177207013   T   T   T
0.6285394963765070   0.0168448656382463   0.6175451682   T   T   T
0.8329017103489773   0.0096183740309425   0.6171385034   T   T   T
0.0336165281239264   0.2106999211897612   0.6169194651   T   T   T
0.2328414860510519   0.2154058417315645   0.6145970730   T   T   T
0.4247948547896134   0.2281635330390670   0.6189354739   T   T   T
0.6266630112328511   0.2164573746821368   0.6134455442   T   T   T
0.8296508373787832   0.2119267878049341   0.6167524425   T   T   T
0.0392051837027415   0.4117971907032961   0.6159856408   T   T   T
0.6202029834452694   0.4118848280834400   0.6150700069   T   T   T
0.8318885245168917   0.4104373147479731   0.6173131703   T   T   T
0.0519959555577791   0.6015794022617684   0.6160151874   T   T   T
0.4202797193968928   0.5966597355522391   0.6162780730   T   T   T
0.6292900890937109   0.6070858244214878   0.6166618791   T   T   T
0.8368925003704826   0.6083796506623755   0.6168837131   T   T   T
0.0389542569814041   0.8031489116543296   0.6153578793   T   T   T
0.2345751748338111   0.8015533272165078   0.6155342258   T   T   T
0.4318749096570058   0.8052060899614210   0.6171644811   T   T   T
0.6329053083308824   0.8096482036078123   0.6185202947   T   T   T
0.8367148062479891   0.8077212548124849   0.6169967630   T   T   T
0.2229976081489659   0.4107699375358663   0.6048189253   T   T   T
0.4447696563964741   0.4062524384435390   0.6028421548   T   T   T
0.2243814837641329   0.6244193730989287   0.6035087784   T   T   T
0.3647197436087394   0.3545267294924834   0.6509317323   T   T   T
0.3618183027527179   0.3703758739072767   0.6810399471   T   T   T
 
  0.00000000E+00  0.00000000E+00  0.00000000E+00
  0.00000000E+00  0.00000000E+00  0.00000000E+00
  0.00000000E+00  0.00000000E+00  0.00000000E+00
  0.00000000E+00  0.00000000E+00  0.00000000E+00
  0.00000000E+00  0.00000000E+00  0.00000000E+00
  0.00000000E+00  0.00000000E+00  0.00000000E+00
  0.00000000E+00  0.00000000E+00  0.00000000E+00
  0.00000000E+00  0.00000000E+00  0.00000000E+00
  0.00000000E+00  0.00000000E+00  0.00000000E+00
  0.00000000E+00  0.00000000E+00  0.00000000E+00
  0.00000000E+00  0.00000000E+00  0.00000000E+00
  0.00000000E+00  0.00000000E+00  0.00000000E+00
  0.00000000E+00  0.00000000E+00  0.00000000E+00
  0.00000000E+00  0.00000000E+00  0.00000000E+00
  0.00000000E+00  0.00000000E+00  0.00000000E+00
  0.00000000E+00  0.00000000E+00  0.00000000E+00
  0.00000000E+00  0.00000000E+00  0.00000000E+00
  0.00000000E+00  0.00000000E+00  0.00000000E+00
  0.00000000E+00  0.00000000E+00  0.00000000E+00
  0.00000000E+00  0.00000000E+00  0.00000000E+00
  0.00000000E+00  0.00000000E+00  0.00000000E+00
  0.00000000E+00  0.00000000E+00  0.00000000E+00
  0.00000000E+00  0.00000000E+00  0.00000000E+00
  0.00000000E+00  0.00000000E+00  0.00000000E+00
  0.00000000E+00  0.00000000E+00  0.00000000E+00
  0.00000000E+00  0.00000000E+00  0.00000000E+00
  0.00000000E+00  0.00000000E+00  0.00000000E+00
  0.00000000E+00  0.00000000E+00  0.00000000E+00
  0.00000000E+00  0.00000000E+00  0.00000000E+00
  0.00000000E+00  0.00000000E+00  0.00000000E+00
  0.00000000E+00  0.00000000E+00  0.00000000E+00
  0.00000000E+00  0.00000000E+00  0.00000000E+00
  0.00000000E+00  0.00000000E+00  0.00000000E+00
  0.00000000E+00  0.00000000E+00  0.00000000E+00
  0.00000000E+00  0.00000000E+00  0.00000000E+00
  0.00000000E+00  0.00000000E+00  0.00000000E+00
  0.00000000E+00  0.00000000E+00  0.00000000E+00
  0.00000000E+00  0.00000000E+00  0.00000000E+00
  0.00000000E+00  0.00000000E+00  0.00000000E+00
  0.00000000E+00  0.00000000E+00  0.00000000E+00
  0.00000000E+00  0.00000000E+00  0.00000000E+00
  0.00000000E+00  0.00000000E+00  0.00000000E+00
  0.00000000E+00  0.00000000E+00  0.00000000E+00
  0.00000000E+00  0.00000000E+00  0.00000000E+00
  0.00000000E+00  0.00000000E+00  0.00000000E+00
  0.00000000E+00  0.00000000E+00  0.00000000E+00
  0.00000000E+00  0.00000000E+00  0.00000000E+00
  0.00000000E+00  0.00000000E+00  0.00000000E+00
  0.00000000E+00  0.00000000E+00  0.00000000E+00
  0.00000000E+00  0.00000000E+00  0.00000000E+00
  0.00000000E+00  0.00000000E+00  0.00000000E+00
  0.00000000E+00  0.00000000E+00  0.00000000E+00
  0.00000000E+00  0.00000000E+00  0.00000000E+00
  0.00000000E+00  0.00000000E+00  0.00000000E+00
  0.00000000E+00  0.00000000E+00  0.00000000E+00
  0.00000000E+00  0.00000000E+00  0.00000000E+00
  0.00000000E+00  0.00000000E+00  0.00000000E+00
  0.00000000E+00  0.00000000E+00  0.00000000E+00
  0.00000000E+00  0.00000000E+00  0.00000000E+00
  0.00000000E+00  0.00000000E+00  0.00000000E+00
  0.00000000E+00  0.00000000E+00  0.00000000E+00
  0.00000000E+00  0.00000000E+00  0.00000000E+00
  0.00000000E+00  0.00000000E+00  0.00000000E+00
  0.00000000E+00  0.00000000E+00  0.00000000E+00
  0.00000000E+00  0.00000000E+00  0.00000000E+00
  0.00000000E+00  0.00000000E+00  0.00000000E+00
  0.00000000E+00  0.00000000E+00  0.00000000E+00
  0.00000000E+00  0.00000000E+00  0.00000000E+00
  0.00000000E+00  0.00000000E+00  0.00000000E+00
  0.00000000E+00  0.00000000E+00  0.00000000E+00
  0.00000000E+00  0.00000000E+00  0.00000000E+00
  0.00000000E+00  0.00000000E+00  0.00000000E+00
  0.00000000E+00  0.00000000E+00  0.00000000E+00
  0.00000000E+00  0.00000000E+00  0.00000000E+00
  0.00000000E+00  0.00000000E+00  0.00000000E+00
  0.00000000E+00  0.00000000E+00  0.00000000E+00
  0.00000000E+00  0.00000000E+00  0.00000000E+00
  0.00000000E+00  0.00000000E+00  0.00000000E+00
  0.00000000E+00  0.00000000E+00  0.00000000E+00
  0.00000000E+00  0.00000000E+00  0.00000000E+00
  0.00000000E+00  0.00000000E+00  0.00000000E+00
  0.00000000E+00  0.00000000E+00  0.00000000E+00
  0.00000000E+00  0.00000000E+00  0.00000000E+00
  0.00000000E+00  0.00000000E+00  0.00000000E+00
  0.00000000E+00  0.00000000E+00  0.00000000E+00
  0.00000000E+00  0.00000000E+00  0.00000000E+00
  0.00000000E+00  0.00000000E+00  0.00000000E+00
  0.00000000E+00  0.00000000E+00  0.00000000E+00
  0.00000000E+00  0.00000000E+00  0.00000000E+00
  0.00000000E+00  0.00000000E+00  0.00000000E+00
  0.00000000E+00  0.00000000E+00  0.00000000E+00
  0.00000000E+00  0.00000000E+00  0.00000000E+00
  0.00000000E+00  0.00000000E+00  0.00000000E+00
  0.00000000E+00  0.00000000E+00  0.00000000E+00
  0.00000000E+00  0.00000000E+00  0.00000000E+00
  0.00000000E+00  0.00000000E+00  0.00000000E+00
  0.00000000E+00  0.00000000E+00  0.00000000E+00
  0.00000000E+00  0.00000000E+00  0.00000000E+00
  0.00000000E+00  0.00000000E+00  0.00000000E+00
  0.00000000E+00  0.00000000E+00  0.00000000E+00
  0.00000000E+00  0.00000000E+00  0.00000000E+00
  0.00000000E+00  0.00000000E+00  0.00000000E+00
  0.00000000E+00  0.00000000E+00  0.00000000E+00
  0.00000000E+00  0.00000000E+00  0.00000000E+00
  0.00000000E+00  0.00000000E+00  0.00000000E+00
  0.00000000E+00  0.00000000E+00  0.00000000E+00
  0.00000000E+00  0.00000000E+00  0.00000000E+00
  0.00000000E+00  0.00000000E+00  0.00000000E+00
  0.00000000E+00  0.00000000E+00  0.00000000E+00
  0.00000000E+00  0.00000000E+00  0.00000000E+00
  0.00000000E+00  0.00000000E+00  0.00000000E+00
  0.00000000E+00  0.00000000E+00  0.00000000E+00
  0.00000000E+00  0.00000000E+00  0.00000000E+00
  0.00000000E+00  0.00000000E+00  0.00000000E+00
  0.00000000E+00  0.00000000E+00  0.00000000E+00
  0.00000000E+00  0.00000000E+00  0.00000000E+00
  0.00000000E+00  0.00000000E+00  0.00000000E+00
  0.00000000E+00  0.00000000E+00  0.00000000E+00
  0.00000000E+00  0.00000000E+00  0.00000000E+00
  0.00000000E+00  0.00000000E+00  0.00000000E+00
  0.00000000E+00  0.00000000E+00  0.00000000E+00
  0.00000000E+00  0.00000000E+00  0.00000000E+00
  0.00000000E+00  0.00000000E+00  0.00000000E+00
  0.00000000E+00  0.00000000E+00  0.00000000E+00
  0.00000000E+00  0.00000000E+00  0.00000000E+00
  0.00000000E+00  0.00000000E+00  0.00000000E+00
  0.00000000E+00  0.00000000E+00  0.00000000E+00
