Al Fe  C  O  H                          
   1.00000000000000     
    14.3189123190275875    0.0000000000000000    0.0000000000000000
     7.1594561595137938   12.4005418228398376    0.0000000000000000
   0.0000000000   0.0000000000   31.7732971075
   Al   Fe   C    O    H 
   122     3     1     1     1
Selective dynamics
Direct
0.9666665393251961   0.1426666827703613   0.3147296916   F   F   F
0.1666665393251989   0.1426666827703613   0.3147296916   F   F   F
0.3666665393252018   0.1426666827703613   0.3147296916   F   F   F
0.5666665393251975   0.1426666827703613   0.3147296916   F   F   F
0.7666665393252003   0.1426666827703613   0.3147296916   F   F   F
0.9666665393251961   0.3426666827703642   0.3147296916   F   F   F
0.1666665393251989   0.3426666827703642   0.3147296916   F   F   F
0.3666665393252018   0.3426666827703642   0.3147296916   F   F   F
0.5666665393251975   0.3426666827703642   0.3147296916   F   F   F
0.7666665393252003   0.3426666827703642   0.3147296916   F   F   F
0.9666665393251961   0.5426666827703599   0.3147296916   F   F   F
0.1666665393251989   0.5426666827703599   0.3147296916   F   F   F
0.3666665393252018   0.5426666827703599   0.3147296916   F   F   F
0.5666665393251975   0.5426666827703599   0.3147296916   F   F   F
0.7666665393252003   0.5426666827703599   0.3147296916   F   F   F
0.9666665393251961   0.7426666827703627   0.3147296916   F   F   F
0.1666665393251989   0.7426666827703627   0.3147296916   F   F   F
0.3666665393252018   0.7426666827703627   0.3147296916   F   F   F
0.5666665393251975   0.7426666827703627   0.3147296916   F   F   F
0.7666665393252003   0.7426666827703627   0.3147296916   F   F   F
0.9666665393251961   0.9426666827703656   0.3147296916   F   F   F
0.1666665393251989   0.9426666827703656   0.3147296916   F   F   F
0.3666665393252018   0.9426666827703656   0.3147296916   F   F   F
0.5666665393251975   0.9426666827703656   0.3147296916   F   F   F
0.7666665393252003   0.9426666827703656   0.3147296916   F   F   F
0.0333332059918661   0.0093333494370285   0.3883219469   F   F   F
0.2333332059918689   0.0093333494370285   0.3883219469   F   F   F
0.4333332059918646   0.0093333494370285   0.3883219469   F   F   F
0.6333332059918675   0.0093333494370285   0.3883219469   F   F   F
0.8333332059918632   0.0093333494370285   0.3883219469   F   F   F
0.0333332059918661   0.2093333494370313   0.3883219469   F   F   F
0.2333332059918689   0.2093333494370313   0.3883219469   F   F   F
0.4333332059918646   0.2093333494370313   0.3883219469   F   F   F
0.6333332059918675   0.2093333494370313   0.3883219469   F   F   F
0.8333332059918632   0.2093333494370313   0.3883219469   F   F   F
0.0333332059918661   0.4093333494370270   0.3883219469   F   F   F
0.2333332059918689   0.4093333494370270   0.3883219469   F   F   F
0.4333332059918646   0.4093333494370270   0.3883219469   F   F   F
0.6333332059918675   0.4093333494370270   0.3883219469   F   F   F
0.8333332059918632   0.4093333494370270   0.3883219469   F   F   F
0.0333332059918661   0.6093333494370299   0.3883219469   F   F   F
0.2333332059918689   0.6093333494370299   0.3883219469   F   F   F
0.4333332059918646   0.6093333494370299   0.3883219469   F   F   F
0.6333332059918675   0.6093333494370299   0.3883219469   F   F   F
0.8333332059918632   0.6093333494370299   0.3883219469   F   F   F
0.0333332059918661   0.8093333494370256   0.3883219469   F   F   F
0.2333332059918689   0.8093333494370256   0.3883219469   F   F   F
0.4333332059918646   0.8093333494370256   0.3883219469   F   F   F
0.6333332059918675   0.8093333494370256   0.3883219469   F   F   F
0.8333332059918632   0.8093333494370256   0.3883219469   F   F   F
0.0999998726585360   0.0760000161036984   0.4619142021   F   F   F
0.2999998726585318   0.0760000161036984   0.4619142021   F   F   F
0.4999998726585346   0.0760000161036984   0.4619142021   F   F   F
0.6999998726585304   0.0760000161036984   0.4619142021   F   F   F
0.8999998726585332   0.0760000161036984   0.4619142021   F   F   F
0.0999998726585360   0.2760000161036942   0.4619142021   F   F   F
0.2999998726585318   0.2760000161036942   0.4619142021   F   F   F
0.4999998726585346   0.2760000161036942   0.4619142021   F   F   F
0.6999998726585304   0.2760000161036942   0.4619142021   F   F   F
0.8999998726585332   0.2760000161036942   0.4619142021   F   F   F
0.0999998726585360   0.4760000161036970   0.4619142021   F   F   F
0.2999998726585318   0.4760000161036970   0.4619142021   F   F   F
0.4999998726585346   0.4760000161036970   0.4619142021   F   F   F
0.6999998726585304   0.4760000161036970   0.4619142021   F   F   F
0.8999998726585332   0.4760000161036970   0.4619142021   F   F   F
0.0999998726585360   0.6760000161036928   0.4619142021   F   F   F
0.2999998726585318   0.6760000161036928   0.4619142021   F   F   F
0.4999998726585346   0.6760000161036928   0.4619142021   F   F   F
0.6999998726585304   0.6760000161036928   0.4619142021   F   F   F
0.8999998726585332   0.6760000161036928   0.4619142021   F   F   F
0.0999998726585360   0.8760000161036956   0.4619142021   F   F   F
0.2999998726585318   0.8760000161036956   0.4619142021   F   F   F
0.4999998726585346   0.8760000161036956   0.4619142021   F   F   F
0.6999998726585304   0.8760000161036956   0.4619142021   F   F   F
0.8999998726585332   0.8760000161036956   0.4619142021   F   F   F
0.9666583970654465   0.1425704268118854   0.5356714042   T   T   T
0.1689121745761502   0.1432632017352376   0.5354170578   T   T   T
0.3695737011130401   0.1407405821196817   0.5343732717   T   T   T
0.5653547804800438   0.1409449529438223   0.5343925407   T   T   T
0.7636095535392128   0.1432187266577468   0.5354357992   T   T   T
0.9678542167136103   0.3441270280495071   0.5353799280   T   T   T
0.1684333454466998   0.3433738302005050   0.5333741951   T   T   T
0.3651761316974875   0.3455323628087645   0.5341397324   T   T   T
0.5637536574777002   0.3436349902538641   0.5335097958   T   T   T
0.7639103667097519   0.3440833648211403   0.5353682209   T   T   T
0.9652451091395279   0.5445928699763242   0.5341526771   T   T   T
0.1687642617467350   0.5412894631334583   0.5342527369   T   T   T
0.3660724845648237   0.5418359035373513   0.5341964022   T   T   T
0.5659891181290198   0.5447683853073412   0.5342087604   T   T   T
0.7666396534502956   0.5426655482904080   0.5353749112   T   T   T
0.9656546305933755   0.7411039116461178   0.5343796077   T   T   T
0.1693462610458793   0.7375156926087781   0.5345912052   T   T   T
0.3691230896901129   0.7413212696926811   0.5344386063   T   T   T
0.5674436167258254   0.7429159925269470   0.5355253302   T   T   T
0.7656992749850383   0.7427802438124751   0.5355343334   T   T   T
0.9682267669934578   0.9389005269494077   0.5355065163   T   T   T
0.1683522671777261   0.9389835766904715   0.5354831593   T   T   T
0.3673829262510181   0.9419207517123434   0.5354255211   T   T   T
0.5672252158816773   0.9413447115267910   0.5357002570   T   T   T
0.7663302521591625   0.9419161226247098   0.5354518612   T   T   T
0.0351051055880702   0.0052271398182862   0.6089136548   T   T   T
0.2337419803290567   0.0092705651178619   0.6093716906   T   T   T
0.4307691993601874   0.0153416355479352   0.6093750519   T   T   T
0.6292526179445171   0.0153882895132317   0.6094432584   T   T   T
0.8323121131469631   0.0092396798045412   0.6093902935   T   T   T
0.0367643464665927   0.2118456013702202   0.6089571014   T   T   T
0.2370519859890837   0.2211305391270474   0.6074543311   T   T   T
0.4199873962914696   0.2361342994628280   0.6072144168   T   T   T
0.6178395502290963   0.2211367831045798   0.6075655550   T   T   T
0.8275760273215201   0.2116097398002258   0.6088765318   T   T   T
0.0456477921409624   0.4113247275573448   0.6072123877   T   T   T
0.6193174566142199   0.4114085778996713   0.6072234615   T   T   T
0.8336517351621643   0.4085862836642566   0.6093644917   T   T   T
0.0548546955411734   0.5978524142352321   0.6063999644   T   T   T
0.4235162865886508   0.5982543683193721   0.6067854927   T   T   T
0.6302459170071372   0.6057341287180329   0.6091686139   T   T   T
0.8403799782012497   0.6052996878467606   0.6091293258   T   T   T
0.0429716344632521   0.7964963078376248   0.6079419976   T   T   T
0.2362340975982989   0.7968958032032334   0.6079275038   T   T   T
0.4313287366884949   0.8052829712778111   0.6093214962   T   T   T
0.6340668571778456   0.8076760826794400   0.6107789945   T   T   T
0.8392873299147526   0.8049154977601122   0.6092330627   T   T   T
0.2341807011985245   0.4121030910490749   0.5952836152   T   T   T
0.4281555781953763   0.4139099057099873   0.5953202712   T   T   T
0.2364696505984449   0.6038146441412304   0.5971208688   T   T   T
0.3072356939433162   0.4593731892407465   0.6310566538   T   T   T
0.3051148319360792   0.4713584026588785   0.6737625303   T   T   T
0.2445669665446420   0.4665631004138668   0.6852703084   T   T   T
 
  0.00000000E+00  0.00000000E+00  0.00000000E+00
  0.00000000E+00  0.00000000E+00  0.00000000E+00
  0.00000000E+00  0.00000000E+00  0.00000000E+00
  0.00000000E+00  0.00000000E+00  0.00000000E+00
  0.00000000E+00  0.00000000E+00  0.00000000E+00
  0.00000000E+00  0.00000000E+00  0.00000000E+00
  0.00000000E+00  0.00000000E+00  0.00000000E+00
  0.00000000E+00  0.00000000E+00  0.00000000E+00
  0.00000000E+00  0.00000000E+00  0.00000000E+00
  0.00000000E+00  0.00000000E+00  0.00000000E+00
  0.00000000E+00  0.00000000E+00  0.00000000E+00
  0.00000000E+00  0.00000000E+00  0.00000000E+00
  0.00000000E+00  0.00000000E+00  0.00000000E+00
  0.00000000E+00  0.00000000E+00  0.00000000E+00
  0.00000000E+00  0.00000000E+00  0.00000000E+00
  0.00000000E+00  0.00000000E+00  0.00000000E+00
  0.00000000E+00  0.00000000E+00  0.00000000E+00
  0.00000000E+00  0.00000000E+00  0.00000000E+00
  0.00000000E+00  0.00000000E+00  0.00000000E+00
  0.00000000E+00  0.00000000E+00  0.00000000E+00
  0.00000000E+00  0.00000000E+00  0.00000000E+00
  0.00000000E+00  0.00000000E+00  0.00000000E+00
  0.00000000E+00  0.00000000E+00  0.00000000E+00
  0.00000000E+00  0.00000000E+00  0.00000000E+00
  0.00000000E+00  0.00000000E+00  0.00000000E+00
  0.00000000E+00  0.00000000E+00  0.00000000E+00
  0.00000000E+00  0.00000000E+00  0.00000000E+00
  0.00000000E+00  0.00000000E+00  0.00000000E+00
  0.00000000E+00  0.00000000E+00  0.00000000E+00
  0.00000000E+00  0.00000000E+00  0.00000000E+00
  0.00000000E+00  0.00000000E+00  0.00000000E+00
  0.00000000E+00  0.00000000E+00  0.00000000E+00
  0.00000000E+00  0.00000000E+00  0.00000000E+00
  0.00000000E+00  0.00000000E+00  0.00000000E+00
  0.00000000E+00  0.00000000E+00  0.00000000E+00
  0.00000000E+00  0.00000000E+00  0.00000000E+00
  0.00000000E+00  0.00000000E+00  0.00000000E+00
  0.00000000E+00  0.00000000E+00  0.00000000E+00
  0.00000000E+00  0.00000000E+00  0.00000000E+00
  0.00000000E+00  0.00000000E+00  0.00000000E+00
  0.00000000E+00  0.00000000E+00  0.00000000E+00
  0.00000000E+00  0.00000000E+00  0.00000000E+00
  0.00000000E+00  0.00000000E+00  0.00000000E+00
  0.00000000E+00  0.00000000E+00  0.00000000E+00
  0.00000000E+00  0.00000000E+00  0.00000000E+00
  0.00000000E+00  0.00000000E+00  0.00000000E+00
  0.00000000E+00  0.00000000E+00  0.00000000E+00
  0.00000000E+00  0.00000000E+00  0.00000000E+00
  0.00000000E+00  0.00000000E+00  0.00000000E+00
  0.00000000E+00  0.00000000E+00  0.00000000E+00
  0.00000000E+00  0.00000000E+00  0.00000000E+00
  0.00000000E+00  0.00000000E+00  0.00000000E+00
  0.00000000E+00  0.00000000E+00  0.00000000E+00
  0.00000000E+00  0.00000000E+00  0.00000000E+00
  0.00000000E+00  0.00000000E+00  0.00000000E+00
  0.00000000E+00  0.00000000E+00  0.00000000E+00
  0.00000000E+00  0.00000000E+00  0.00000000E+00
  0.00000000E+00  0.00000000E+00  0.00000000E+00
  0.00000000E+00  0.00000000E+00  0.00000000E+00
  0.00000000E+00  0.00000000E+00  0.00000000E+00
  0.00000000E+00  0.00000000E+00  0.00000000E+00
  0.00000000E+00  0.00000000E+00  0.00000000E+00
  0.00000000E+00  0.00000000E+00  0.00000000E+00
  0.00000000E+00  0.00000000E+00  0.00000000E+00
  0.00000000E+00  0.00000000E+00  0.00000000E+00
  0.00000000E+00  0.00000000E+00  0.00000000E+00
  0.00000000E+00  0.00000000E+00  0.00000000E+00
  0.00000000E+00  0.00000000E+00  0.00000000E+00
  0.00000000E+00  0.00000000E+00  0.00000000E+00
  0.00000000E+00  0.00000000E+00  0.00000000E+00
  0.00000000E+00  0.00000000E+00  0.00000000E+00
  0.00000000E+00  0.00000000E+00  0.00000000E+00
  0.00000000E+00  0.00000000E+00  0.00000000E+00
  0.00000000E+00  0.00000000E+00  0.00000000E+00
  0.00000000E+00  0.00000000E+00  0.00000000E+00
  0.00000000E+00  0.00000000E+00  0.00000000E+00
  0.00000000E+00  0.00000000E+00  0.00000000E+00
  0.00000000E+00  0.00000000E+00  0.00000000E+00
  0.00000000E+00  0.00000000E+00  0.00000000E+00
  0.00000000E+00  0.00000000E+00  0.00000000E+00
  0.00000000E+00  0.00000000E+00  0.00000000E+00
  0.00000000E+00  0.00000000E+00  0.00000000E+00
  0.00000000E+00  0.00000000E+00  0.00000000E+00
  0.00000000E+00  0.00000000E+00  0.00000000E+00
  0.00000000E+00  0.00000000E+00  0.00000000E+00
  0.00000000E+00  0.00000000E+00  0.00000000E+00
  0.00000000E+00  0.00000000E+00  0.00000000E+00
  0.00000000E+00  0.00000000E+00  0.00000000E+00
  0.00000000E+00  0.00000000E+00  0.00000000E+00
  0.00000000E+00  0.00000000E+00  0.00000000E+00
  0.00000000E+00  0.00000000E+00  0.00000000E+00
  0.00000000E+00  0.00000000E+00  0.00000000E+00
  0.00000000E+00  0.00000000E+00  0.00000000E+00
  0.00000000E+00  0.00000000E+00  0.00000000E+00
  0.00000000E+00  0.00000000E+00  0.00000000E+00
  0.00000000E+00  0.00000000E+00  0.00000000E+00
  0.00000000E+00  0.00000000E+00  0.00000000E+00
  0.00000000E+00  0.00000000E+00  0.00000000E+00
  0.00000000E+00  0.00000000E+00  0.00000000E+00
  0.00000000E+00  0.00000000E+00  0.00000000E+00
  0.00000000E+00  0.00000000E+00  0.00000000E+00
  0.00000000E+00  0.00000000E+00  0.00000000E+00
  0.00000000E+00  0.00000000E+00  0.00000000E+00
  0.00000000E+00  0.00000000E+00  0.00000000E+00
  0.00000000E+00  0.00000000E+00  0.00000000E+00
  0.00000000E+00  0.00000000E+00  0.00000000E+00
  0.00000000E+00  0.00000000E+00  0.00000000E+00
  0.00000000E+00  0.00000000E+00  0.00000000E+00
  0.00000000E+00  0.00000000E+00  0.00000000E+00
  0.00000000E+00  0.00000000E+00  0.00000000E+00
  0.00000000E+00  0.00000000E+00  0.00000000E+00
  0.00000000E+00  0.00000000E+00  0.00000000E+00
  0.00000000E+00  0.00000000E+00  0.00000000E+00
  0.00000000E+00  0.00000000E+00  0.00000000E+00
  0.00000000E+00  0.00000000E+00  0.00000000E+00
  0.00000000E+00  0.00000000E+00  0.00000000E+00
  0.00000000E+00  0.00000000E+00  0.00000000E+00
  0.00000000E+00  0.00000000E+00  0.00000000E+00
  0.00000000E+00  0.00000000E+00  0.00000000E+00
  0.00000000E+00  0.00000000E+00  0.00000000E+00
  0.00000000E+00  0.00000000E+00  0.00000000E+00
  0.00000000E+00  0.00000000E+00  0.00000000E+00
  0.00000000E+00  0.00000000E+00  0.00000000E+00
  0.00000000E+00  0.00000000E+00  0.00000000E+00
  0.00000000E+00  0.00000000E+00  0.00000000E+00
  0.00000000E+00  0.00000000E+00  0.00000000E+00
  0.00000000E+00  0.00000000E+00  0.00000000E+00
  0.00000000E+00  0.00000000E+00  0.00000000E+00
