Al Fe  O 
 1.0000000000000000
    14.3189123190275875    0.0000000000000000    0.0000000000000000
     7.1594561595137938   12.4005418228398376    0.0000000000000000
     0.0000000000000000    0.0000000000000000   45.3530743608719362
 Al  Fe  O  
 122   3   1
Selective dynamics
Cartesian
 14.8630292790529790  1.7691441664196890 18.0160721807806929   F   F   F
  3.4078994238309499  1.7691441664196890 18.0160721807806929   F   F   F
  6.2716818876365092  1.7691441664196890 18.0160721807806929   F   F   F
  9.1354643514419642  1.7691441664196890 18.0160721807806929   F   F   F
 11.9992468152475240  1.7691441664196890 18.0160721807806929   F   F   F
 16.2949205109557589  4.2492525309876923 18.0160721807806929   F   F   F
  4.8397906557337294  4.2492525309876923 18.0160721807806929   F   F   F
  7.7035731195392891  4.2492525309876923 18.0160721807806929   F   F   F
 10.5673555833447441  4.2492525309876923 18.0160721807806929   F   F   F
 13.4311380471503039  4.2492525309876923 18.0160721807806929   F   F   F
 17.7268117428584873  6.7293608955556063 18.0160721807806929   F   F   F
  6.2716818876364577  6.7293608955556063 18.0160721807806929   F   F   F
  9.1354643514420175  6.7293608955556063 18.0160721807806929   F   F   F
 11.9992468152474707  6.7293608955556063 18.0160721807806929   F   F   F
 14.8630292790530305  6.7293608955556063 18.0160721807806929   F   F   F
 19.1587029747612654  9.2094692601236101 18.0160721807806929   F   F   F
  7.7035731195392358  9.2094692601236101 18.0160721807806929   F   F   F
 10.5673555833447956  9.2094692601236101 18.0160721807806929   F   F   F
 13.4311380471502506  9.2094692601236101 18.0160721807806929   F   F   F
 16.2949205109558122  9.2094692601236101 18.0160721807806929   F   F   F
 20.5905942066640435 11.6895776246916121 18.0160721807806929   F   F   F
  9.1354643514420157 11.6895776246916121 18.0160721807806929   F   F   F
 11.9992468152475737 11.6895776246916121 18.0160721807806929   F   F   F
 14.8630292790530305 11.6895776246916121 18.0160721807806929   F   F   F
 17.7268117428585903 11.6895776246916121 18.0160721807806929   F   F   F
  0.5441169600254440  0.1157385900410506 20.3543407709988671   F   F   F
  3.4078994238310019  0.1157385900410506 20.3543407709988671   F   F   F
  6.2716818876364568  0.1157385900410506 20.3543407709988671   F   F   F
  9.1354643514420157  0.1157385900410506 20.3543407709988671   F   F   F
 11.9992468152474725  0.1157385900410506 20.3543407709988671   F   F   F
  1.9760081919282229  2.5958469546090530 20.3543407709988671   F   F   F
  4.8397906557337809  2.5958469546090530 20.3543407709988671   F   F   F
  7.7035731195392358  2.5958469546090530 20.3543407709988671   F   F   F
 10.5673555833447956  2.5958469546090530 20.3543407709988671   F   F   F
 13.4311380471502524  2.5958469546090530 20.3543407709988671   F   F   F
  3.4078994238309508  5.0759553191769671 20.3543407709988671   F   F   F
  6.2716818876365084  5.0759553191769671 20.3543407709988671   F   F   F
  9.1354643514419642  5.0759553191769671 20.3543407709988671   F   F   F
 11.9992468152475222  5.0759553191769671 20.3543407709988671   F   F   F
 14.8630292790529790  5.0759553191769671 20.3543407709988671   F   F   F
  4.8397906557337302  7.5560636837449699 20.3543407709988671   F   F   F
  7.7035731195392874  7.5560636837449699 20.3543407709988671   F   F   F
 10.5673555833447423  7.5560636837449699 20.3543407709988671   F   F   F
 13.4311380471503021  7.5560636837449699 20.3543407709988671   F   F   F
 16.2949205109557589  7.5560636837449699 20.3543407709988671   F   F   F
  6.2716818876364586 10.0361720483128849 20.3543407709988671   F   F   F
  9.1354643514420157 10.0361720483128849 20.3543407709988671   F   F   F
 11.9992468152474707 10.0361720483128849 20.3543407709988671   F   F   F
 14.8630292790530305 10.0361720483128849 20.3543407709988671   F   F   F
 17.7268117428584873 10.0361720483128849 20.3543407709988671   F   F   F
  1.9760081919282722  0.9424413782304132 22.6926093612167215   F   F   F
  4.8397906557337294  0.9424413782304132 22.6926093612167215   F   F   F
  7.7035731195392874  0.9424413782304132 22.6926093612167215   F   F   F
 10.5673555833447441  0.9424413782304132 22.6926093612167215   F   F   F
 13.4311380471503021  0.9424413782304132 22.6926093612167215   F   F   F
  3.4078994238310005  3.4225497427983282 22.6926093612167215   F   F   F
  6.2716818876364577  3.4225497427983282 22.6926093612167215   F   F   F
  9.1354643514420157  3.4225497427983282 22.6926093612167215   F   F   F
 11.9992468152474725  3.4225497427983282 22.6926093612167215   F   F   F
 14.8630292790530305  3.4225497427983282 22.6926093612167215   F   F   F
  4.8397906557337791  5.9026581073663316 22.6926093612167215   F   F   F
  7.7035731195392376  5.9026581073663316 22.6926093612167215   F   F   F
 10.5673555833447956  5.9026581073663316 22.6926093612167215   F   F   F
 13.4311380471502524  5.9026581073663316 22.6926093612167215   F   F   F
 16.2949205109558086  5.9026581073663316 22.6926093612167215   F   F   F
  6.2716818876365084  8.3827664719342465 22.6926093612167215   F   F   F
  9.1354643514419660  8.3827664719342465 22.6926093612167215   F   F   F
 11.9992468152475240  8.3827664719342465 22.6926093612167215   F   F   F
 14.8630292790529808  8.3827664719342465 22.6926093612167215   F   F   F
 17.7268117428585370  8.3827664719342465 22.6926093612167215   F   F   F
  7.7035731195392874 10.8628748365022485 22.6926093612167215   F   F   F
 10.5673555833447459 10.8628748365022485 22.6926093612167215   F   F   F
 13.4311380471503021 10.8628748365022485 22.6926093612167215   F   F   F
 16.2949205109557589 10.8628748365022485 22.6926093612167215   F   F   F
 19.1587029747613187 10.8628748365022485 22.6926093612167215   F   F   F
 14.8629644772212224  1.7688412311996919 25.0256280462114127   F   F   F
  3.4297173116466575  1.7830320460244102 25.0265052730526705   F   F   F
  6.2870170051478675  1.7452678521453211 24.9873558244375715   F   F   F
  9.1191954919914622  1.7454480777767678 24.9873903143920550   F   F   F
 11.9764901897839735  1.7836971940253148 25.0264741796220314   F   F   F
 16.3182183445700453  4.2607231406710122 25.0265574003629467   F   F   F
  4.8736829706999458  4.2682891147881215 24.9978778002809676   F   F   F
  7.7032306773893389  4.2605797264774008 25.0234714282613950   F   F   F
 10.5323701824744340  4.2686384805781596 24.9979640307862176   F   F   F
 13.4069448412051084  4.2611092157546784 25.0266131163732375   F   F   F
 17.7146654201949367  6.7532934885948857 24.9874388163615215   F   F   F
  6.2815948042999858  6.7231081255771059 25.0240456338206663   F   F   F
  9.1246973009315084  6.7232827543097038 25.0239824606323857   F   F   F
 12.0108320042198660  6.7530995268139780 24.9875251224551924   F   F   F
 14.8631712145384860  6.7327893639832945 25.0197983286083243   F   F   F
 19.1306469336524287  9.2068025428367566 24.9872187583675505   F   F   F
  7.7030660004446325  9.1691031696557683 24.9974063597687355   F   F   F
 10.5946759163177404  9.2063931648229005 24.9872030154504685   F   F   F
 13.4456118308613526  9.2177584991655248 25.0204056696289925   F   F   F
 16.2799897707907100  9.2182523795465983 25.0203563971104472   F   F   F
 20.5921535420595809 11.6620188829098854 25.0268611467590070   F   F   F
  9.1340426214933377 11.6612728575707401 25.0268651030904081   F   F   F
 12.0023189463191819 11.6879940949804677 25.0204168215151839   F   F   F
 14.8634754563277518 11.6716251991860762 25.0207630633194320   F   F   F
 17.7245083518147126 11.6885366866892095 25.0203851656855747   F   F   F
  0.5436440090055749  0.0824779802247437 27.3647323120381891   F   F   F
  3.4095937391311555  0.1128731220112613 27.3763642438115689   F   F   F
  6.2712667429354507  0.1517160953266688 27.3671159232746142   F   F   F
  9.1334847585274090  0.1521016880421326 27.3671464759792009   F   F   F
 11.9962816417716134  0.1128097851595755 27.3765192770600407   F   F   F
  2.0011657414515511  2.6089122440603107 27.3652637268588776   F   F   F
  4.9208915888162839  2.6864627482000949 27.3312580875467894   F   F   F
  7.7023567969143887  2.7045949349757250 27.2893142395153028   F   F   F
 10.4840664390772371  2.6864670358756415 27.3317046755699806   F   F   F
 13.4032640875079387  2.6095184732205285 27.3649403726724465   F   F   F
  3.5273393410950176  5.0988470080309485 27.3314916149824505   F   F   F
 11.8774574548334773  5.0992198346118762 27.3316295371038152   F   F   F
 14.8622121272584575  5.0771570219024502 27.3762075190654173   F   F   F
  4.9335213625969701  7.4987195001567839 27.2898498855845268   F   F   F
 10.4709434963769290  7.4989308473892997 27.2902245476637155   F   F   F
 13.3966100371050167  7.5360972968565569 27.3659992563214054   F   F   F
 16.3268722221135683  7.5364105439918641 27.3663167572940615   F   F   F
  6.3091724405752281  9.9168502787940405 27.3314643387992255   F   F   F
  9.0959666491254172  9.9172224947679410 27.3311655256338071   F   F   F
 11.9656544472393040 10.0142875104520659 27.3659791187085162   F   F   F
 14.8623627848700650 10.0353585426817524 27.4034715889742131   F   F   F
 17.7582286494042236 10.0147526886553209 27.3663260658498899   F   F   F
  6.2565671623821348  5.0657783781962245 27.0364088062734886   T   T   T
  9.1495326181462779  5.0659772908304497 27.0362481974860991   T   T   T
  7.7028109709020622  7.5728128405050317 27.0365687129086503   T   T   T
  7.7027118919722382  5.9020994385708585 27.9834380973349539   T   T   T
