Al Fe  C  O  H                          
   1.00000000000000     
    14.3189123190275875    0.0000000000000000    0.0000000000000000
     7.1594561595137938   12.4005418228398376    0.0000000000000000
   0.0000000000   0.0000000000   31.3991249230
   Al   Fe   C    O    H 
   122     3     1     1     1
Selective dynamics
Direct
0.9704794399373071   0.1443910229206580   0.3184802132   F   F   F
0.1704794399373100   0.1443910229206580   0.3184802132   F   F   F
0.3704794399373128   0.1443910229206580   0.3184802132   F   F   F
0.5704794399373085   0.1443910229206580   0.3184802132   F   F   F
0.7704794399373114   0.1443910229206580   0.3184802132   F   F   F
0.9704794399373071   0.3443910229206608   0.3184802132   F   F   F
0.1704794399373100   0.3443910229206608   0.3184802132   F   F   F
0.3704794399373128   0.3443910229206608   0.3184802132   F   F   F
0.5704794399373085   0.3443910229206608   0.3184802132   F   F   F
0.7704794399373114   0.3443910229206608   0.3184802132   F   F   F
0.9704794399373071   0.5443910229206566   0.3184802132   F   F   F
0.1704794399373100   0.5443910229206566   0.3184802132   F   F   F
0.3704794399373128   0.5443910229206566   0.3184802132   F   F   F
0.5704794399373085   0.5443910229206566   0.3184802132   F   F   F
0.7704794399373114   0.5443910229206566   0.3184802132   F   F   F
0.9704794399373071   0.7443910229206594   0.3184802132   F   F   F
0.1704794399373100   0.7443910229206594   0.3184802132   F   F   F
0.3704794399373128   0.7443910229206594   0.3184802132   F   F   F
0.5704794399373085   0.7443910229206594   0.3184802132   F   F   F
0.7704794399373114   0.7443910229206594   0.3184802132   F   F   F
0.9704794399373071   0.9443910229206622   0.3184802132   F   F   F
0.1704794399373100   0.9443910229206622   0.3184802132   F   F   F
0.3704794399373128   0.9443910229206622   0.3184802132   F   F   F
0.5704794399373085   0.9443910229206622   0.3184802132   F   F   F
0.7704794399373114   0.9443910229206622   0.3184802132   F   F   F
0.0371461066039771   0.0110576895873251   0.3929494411   F   F   F
0.2371461066039799   0.0110576895873251   0.3929494411   F   F   F
0.4371461066039757   0.0110576895873251   0.3929494411   F   F   F
0.6371461066039785   0.0110576895873251   0.3929494411   F   F   F
0.8371461066039743   0.0110576895873251   0.3929494411   F   F   F
0.0371461066039771   0.2110576895873280   0.3929494411   F   F   F
0.2371461066039799   0.2110576895873280   0.3929494411   F   F   F
0.4371461066039757   0.2110576895873280   0.3929494411   F   F   F
0.6371461066039785   0.2110576895873280   0.3929494411   F   F   F
0.8371461066039743   0.2110576895873280   0.3929494411   F   F   F
0.0371461066039771   0.4110576895873237   0.3929494411   F   F   F
0.2371461066039799   0.4110576895873237   0.3929494411   F   F   F
0.4371461066039757   0.4110576895873237   0.3929494411   F   F   F
0.6371461066039785   0.4110576895873237   0.3929494411   F   F   F
0.8371461066039743   0.4110576895873237   0.3929494411   F   F   F
0.0371461066039771   0.6110576895873265   0.3929494411   F   F   F
0.2371461066039799   0.6110576895873265   0.3929494411   F   F   F
0.4371461066039757   0.6110576895873265   0.3929494411   F   F   F
0.6371461066039785   0.6110576895873265   0.3929494411   F   F   F
0.8371461066039743   0.6110576895873265   0.3929494411   F   F   F
0.0371461066039771   0.8110576895873223   0.3929494411   F   F   F
0.2371461066039799   0.8110576895873223   0.3929494411   F   F   F
0.4371461066039757   0.8110576895873223   0.3929494411   F   F   F
0.6371461066039785   0.8110576895873223   0.3929494411   F   F   F
0.8371461066039743   0.8110576895873223   0.3929494411   F   F   F
0.1038127732706471   0.0777243562539951   0.4674186691   F   F   F
0.3038127732706428   0.0777243562539951   0.4674186691   F   F   F
0.5038127732706457   0.0777243562539951   0.4674186691   F   F   F
0.7038127732706414   0.0777243562539951   0.4674186691   F   F   F
0.9038127732706442   0.0777243562539951   0.4674186691   F   F   F
0.1038127732706471   0.2777243562539908   0.4674186691   F   F   F
0.3038127732706428   0.2777243562539908   0.4674186691   F   F   F
0.5038127732706457   0.2777243562539908   0.4674186691   F   F   F
0.7038127732706414   0.2777243562539908   0.4674186691   F   F   F
0.9038127732706442   0.2777243562539908   0.4674186691   F   F   F
0.1038127732706471   0.4777243562539937   0.4674186691   F   F   F
0.3038127732706428   0.4777243562539937   0.4674186691   F   F   F
0.5038127732706457   0.4777243562539937   0.4674186691   F   F   F
0.7038127732706414   0.4777243562539937   0.4674186691   F   F   F
0.9038127732706442   0.4777243562539937   0.4674186691   F   F   F
0.1038127732706471   0.6777243562539894   0.4674186691   F   F   F
0.3038127732706428   0.6777243562539894   0.4674186691   F   F   F
0.5038127732706457   0.6777243562539894   0.4674186691   F   F   F
0.7038127732706414   0.6777243562539894   0.4674186691   F   F   F
0.9038127732706442   0.6777243562539894   0.4674186691   F   F   F
0.1038127732706471   0.8777243562539923   0.4674186691   F   F   F
0.3038127732706428   0.8777243562539923   0.4674186691   F   F   F
0.5038127732706457   0.8777243562539923   0.4674186691   F   F   F
0.7038127732706414   0.8777243562539923   0.4674186691   F   F   F
0.9038127732706442   0.8777243562539923   0.4674186691   F   F   F
0.9710130040009506   0.1450288063651161   0.5421158980   T   T   T
0.1725924076696520   0.1449899266002453   0.5416744436   T   T   T
0.3735342012136482   0.1422347968934322   0.5402097121   T   T   T
0.5695572960253723   0.1433862684125044   0.5408104286   T   T   T
0.7678594266494305   0.1456314620540640   0.5418417538   T   T   T
0.9713526037597684   0.3464567899514840   0.5417538685   T   T   T
0.1723747890030959   0.3459626044853438   0.5404951014   T   T   T
0.3679175537905737   0.3467018033724798   0.5414546125   T   T   T
0.5665603061157374   0.3464819472644904   0.5406525461   T   T   T
0.7676989644923975   0.3457078812081850   0.5417656262   T   T   T
0.9688242314450152   0.5472175362184660   0.5401920429   T   T   T
0.1728970781396850   0.5418518702332142   0.5415209800   T   T   T
0.3691394257625473   0.5430579400687243   0.5410532991   T   T   T
0.5696217687246722   0.5468267958613534   0.5405876247   T   T   T
0.7703479790950992   0.5448532810494620   0.5418682709   T   T   T
0.9694536559334869   0.7437446759070746   0.5407387500   T   T   T
0.1725760116635520   0.7406670253376952   0.5406077861   T   T   T
0.3730377656205595   0.7433645728328504   0.5405751060   T   T   T
0.5715875208020137   0.7451902353002436   0.5419779445   T   T   T
0.7696567629515909   0.7448921815443413   0.5419896020   T   T   T
0.9715797029838367   0.9420434453447379   0.5418182312   T   T   T
0.1718661504419825   0.9415781269337951   0.5417365679   T   T   T
0.3711909011959218   0.9438316537696531   0.5418076858   T   T   T
0.5711703022768155   0.9432888967344539   0.5419943343   T   T   T
0.7700826028335048   0.9441269732513693   0.5416745770   T   T   T
0.0386910959450944   0.0094553029290023   0.6163217267   T   T   T
0.2380580078191651   0.0095814141511531   0.6166104912   T   T   T
0.4350908318302157   0.0178007785472339   0.6165966159   T   T   T
0.6349447147452206   0.0157610784477713   0.6165233834   T   T   T
0.8371906489640152   0.0111743695074053   0.6168272713   T   T   T
0.0429631457938011   0.2164963513707995   0.6164952661   T   T   T
0.2416585475286968   0.2199531496701395   0.6139928765   T   T   T
0.4282945209295129   0.2304255693944544   0.6137285918   T   T   T
0.6263904384722709   0.2200354556345715   0.6150676583   T   T   T
0.8351710410318970   0.2124990639599401   0.6163388476   T   T   T
0.0479573398312309   0.4147193624761553   0.6141681868   T   T   T
0.6265831196595599   0.4136830767213404   0.6148041933   T   T   T
0.8363099423261365   0.4114214098482956   0.6166656095   T   T   T
0.0558283016586672   0.6037330694149424   0.6134674897   T   T   T
0.4281523175748966   0.6018895921212998   0.6135420452   T   T   T
0.6348183177829448   0.6092291933823872   0.6166326197   T   T   T
0.8455382639693417   0.6079868504670938   0.6165993498   T   T   T
0.0459557713595895   0.8012543897501935   0.6150177218   T   T   T
0.2399941576879328   0.8004334737131361   0.6147745348   T   T   T
0.4359360006708355   0.8081156833739631   0.6166239992   T   T   T
0.6378664414532099   0.8107614657224166   0.6183443547   T   T   T
0.8416928837736387   0.8092005809138110   0.6164845844   T   T   T
0.2349298277801761   0.4102157136665326   0.6073277586   T   T   T
0.4371406969961687   0.4105301424925605   0.6033233474   T   T   T
0.2364753883035221   0.6118367465187458   0.6033719463   T   T   T
0.2914018595500503   0.4639793648780781   0.6462231625   T   T   T
0.3099954376898214   0.4824422510536032   0.6815197868   T   T   T
0.1907863612965575   0.3777269085881719   0.6469666955   T   T   T
 
  0.00000000E+00  0.00000000E+00  0.00000000E+00
  0.00000000E+00  0.00000000E+00  0.00000000E+00
  0.00000000E+00  0.00000000E+00  0.00000000E+00
  0.00000000E+00  0.00000000E+00  0.00000000E+00
  0.00000000E+00  0.00000000E+00  0.00000000E+00
  0.00000000E+00  0.00000000E+00  0.00000000E+00
  0.00000000E+00  0.00000000E+00  0.00000000E+00
  0.00000000E+00  0.00000000E+00  0.00000000E+00
  0.00000000E+00  0.00000000E+00  0.00000000E+00
  0.00000000E+00  0.00000000E+00  0.00000000E+00
  0.00000000E+00  0.00000000E+00  0.00000000E+00
  0.00000000E+00  0.00000000E+00  0.00000000E+00
  0.00000000E+00  0.00000000E+00  0.00000000E+00
  0.00000000E+00  0.00000000E+00  0.00000000E+00
  0.00000000E+00  0.00000000E+00  0.00000000E+00
  0.00000000E+00  0.00000000E+00  0.00000000E+00
  0.00000000E+00  0.00000000E+00  0.00000000E+00
  0.00000000E+00  0.00000000E+00  0.00000000E+00
  0.00000000E+00  0.00000000E+00  0.00000000E+00
  0.00000000E+00  0.00000000E+00  0.00000000E+00
  0.00000000E+00  0.00000000E+00  0.00000000E+00
  0.00000000E+00  0.00000000E+00  0.00000000E+00
  0.00000000E+00  0.00000000E+00  0.00000000E+00
  0.00000000E+00  0.00000000E+00  0.00000000E+00
  0.00000000E+00  0.00000000E+00  0.00000000E+00
  0.00000000E+00  0.00000000E+00  0.00000000E+00
  0.00000000E+00  0.00000000E+00  0.00000000E+00
  0.00000000E+00  0.00000000E+00  0.00000000E+00
  0.00000000E+00  0.00000000E+00  0.00000000E+00
  0.00000000E+00  0.00000000E+00  0.00000000E+00
  0.00000000E+00  0.00000000E+00  0.00000000E+00
  0.00000000E+00  0.00000000E+00  0.00000000E+00
  0.00000000E+00  0.00000000E+00  0.00000000E+00
  0.00000000E+00  0.00000000E+00  0.00000000E+00
  0.00000000E+00  0.00000000E+00  0.00000000E+00
  0.00000000E+00  0.00000000E+00  0.00000000E+00
  0.00000000E+00  0.00000000E+00  0.00000000E+00
  0.00000000E+00  0.00000000E+00  0.00000000E+00
  0.00000000E+00  0.00000000E+00  0.00000000E+00
  0.00000000E+00  0.00000000E+00  0.00000000E+00
  0.00000000E+00  0.00000000E+00  0.00000000E+00
  0.00000000E+00  0.00000000E+00  0.00000000E+00
  0.00000000E+00  0.00000000E+00  0.00000000E+00
  0.00000000E+00  0.00000000E+00  0.00000000E+00
  0.00000000E+00  0.00000000E+00  0.00000000E+00
  0.00000000E+00  0.00000000E+00  0.00000000E+00
  0.00000000E+00  0.00000000E+00  0.00000000E+00
  0.00000000E+00  0.00000000E+00  0.00000000E+00
  0.00000000E+00  0.00000000E+00  0.00000000E+00
  0.00000000E+00  0.00000000E+00  0.00000000E+00
  0.00000000E+00  0.00000000E+00  0.00000000E+00
  0.00000000E+00  0.00000000E+00  0.00000000E+00
  0.00000000E+00  0.00000000E+00  0.00000000E+00
  0.00000000E+00  0.00000000E+00  0.00000000E+00
  0.00000000E+00  0.00000000E+00  0.00000000E+00
  0.00000000E+00  0.00000000E+00  0.00000000E+00
  0.00000000E+00  0.00000000E+00  0.00000000E+00
  0.00000000E+00  0.00000000E+00  0.00000000E+00
  0.00000000E+00  0.00000000E+00  0.00000000E+00
  0.00000000E+00  0.00000000E+00  0.00000000E+00
  0.00000000E+00  0.00000000E+00  0.00000000E+00
  0.00000000E+00  0.00000000E+00  0.00000000E+00
  0.00000000E+00  0.00000000E+00  0.00000000E+00
  0.00000000E+00  0.00000000E+00  0.00000000E+00
  0.00000000E+00  0.00000000E+00  0.00000000E+00
  0.00000000E+00  0.00000000E+00  0.00000000E+00
  0.00000000E+00  0.00000000E+00  0.00000000E+00
  0.00000000E+00  0.00000000E+00  0.00000000E+00
  0.00000000E+00  0.00000000E+00  0.00000000E+00
  0.00000000E+00  0.00000000E+00  0.00000000E+00
  0.00000000E+00  0.00000000E+00  0.00000000E+00
  0.00000000E+00  0.00000000E+00  0.00000000E+00
  0.00000000E+00  0.00000000E+00  0.00000000E+00
  0.00000000E+00  0.00000000E+00  0.00000000E+00
  0.00000000E+00  0.00000000E+00  0.00000000E+00
  0.00000000E+00  0.00000000E+00  0.00000000E+00
  0.00000000E+00  0.00000000E+00  0.00000000E+00
  0.00000000E+00  0.00000000E+00  0.00000000E+00
  0.00000000E+00  0.00000000E+00  0.00000000E+00
  0.00000000E+00  0.00000000E+00  0.00000000E+00
  0.00000000E+00  0.00000000E+00  0.00000000E+00
  0.00000000E+00  0.00000000E+00  0.00000000E+00
  0.00000000E+00  0.00000000E+00  0.00000000E+00
  0.00000000E+00  0.00000000E+00  0.00000000E+00
  0.00000000E+00  0.00000000E+00  0.00000000E+00
  0.00000000E+00  0.00000000E+00  0.00000000E+00
  0.00000000E+00  0.00000000E+00  0.00000000E+00
  0.00000000E+00  0.00000000E+00  0.00000000E+00
  0.00000000E+00  0.00000000E+00  0.00000000E+00
  0.00000000E+00  0.00000000E+00  0.00000000E+00
  0.00000000E+00  0.00000000E+00  0.00000000E+00
  0.00000000E+00  0.00000000E+00  0.00000000E+00
  0.00000000E+00  0.00000000E+00  0.00000000E+00
  0.00000000E+00  0.00000000E+00  0.00000000E+00
  0.00000000E+00  0.00000000E+00  0.00000000E+00
  0.00000000E+00  0.00000000E+00  0.00000000E+00
  0.00000000E+00  0.00000000E+00  0.00000000E+00
  0.00000000E+00  0.00000000E+00  0.00000000E+00
  0.00000000E+00  0.00000000E+00  0.00000000E+00
  0.00000000E+00  0.00000000E+00  0.00000000E+00
  0.00000000E+00  0.00000000E+00  0.00000000E+00
  0.00000000E+00  0.00000000E+00  0.00000000E+00
  0.00000000E+00  0.00000000E+00  0.00000000E+00
  0.00000000E+00  0.00000000E+00  0.00000000E+00
  0.00000000E+00  0.00000000E+00  0.00000000E+00
  0.00000000E+00  0.00000000E+00  0.00000000E+00
  0.00000000E+00  0.00000000E+00  0.00000000E+00
  0.00000000E+00  0.00000000E+00  0.00000000E+00
  0.00000000E+00  0.00000000E+00  0.00000000E+00
  0.00000000E+00  0.00000000E+00  0.00000000E+00
  0.00000000E+00  0.00000000E+00  0.00000000E+00
  0.00000000E+00  0.00000000E+00  0.00000000E+00
  0.00000000E+00  0.00000000E+00  0.00000000E+00
  0.00000000E+00  0.00000000E+00  0.00000000E+00
  0.00000000E+00  0.00000000E+00  0.00000000E+00
  0.00000000E+00  0.00000000E+00  0.00000000E+00
  0.00000000E+00  0.00000000E+00  0.00000000E+00
  0.00000000E+00  0.00000000E+00  0.00000000E+00
  0.00000000E+00  0.00000000E+00  0.00000000E+00
  0.00000000E+00  0.00000000E+00  0.00000000E+00
  0.00000000E+00  0.00000000E+00  0.00000000E+00
  0.00000000E+00  0.00000000E+00  0.00000000E+00
  0.00000000E+00  0.00000000E+00  0.00000000E+00
  0.00000000E+00  0.00000000E+00  0.00000000E+00
  0.00000000E+00  0.00000000E+00  0.00000000E+00
  0.00000000E+00  0.00000000E+00  0.00000000E+00
  0.00000000E+00  0.00000000E+00  0.00000000E+00
  0.00000000E+00  0.00000000E+00  0.00000000E+00
