 O  H 
 1.0000000000000000
    14.3189123190275875    0.0000000000000000    0.0000000000000000
     0.0000000000000000   14.3189123190275875    0.0000000000000000
   0.0000000000   0.0000000000   20.5963090000
 O   H  
   1   2
Selective dynamics
Cartesian
7.1594561595137938   7.1594561595137938   10.5963090000   T   T   T
7.1594561595137938   7.9226951595137933   10.0000000000   T   T   T
7.1594561595137938   6.3962171595137942   10.0000000000   T   T   T
