C  H 
 1.0000000000000000
    14.3189123190275875    0.0000000000000000    0.0000000000000000
     7.1594561595137938   12.4005418228398376    0.0000000000000000
   0.0000000000   0.0000000000   25.6182038073
 C   H  
   4  10
Cartesian
10.7390174328034149   5.7669943933494068   12.1743210733
10.7397793111381166   5.8001475656589196   14.7346089995
10.7392685977767623   6.6231367850380902   13.4443326755
10.7386570450232259   6.6027915420698911   10.8938143978
10.7385842047903264   5.9746322418144810   10.0000000000
10.7383134122351791   6.4433707997779717   15.6182038073
11.6248948470453755   5.1589848516774897   14.7902807889
9.8564107736065196   5.1564430196009319   14.7888453604
9.8621826279377007   5.1088606872152358   12.1856764110
11.6204037930641437   7.2474352137840885   10.8498287987
9.8568589276995215   7.2473910751500341   10.8502263724
9.8621120636167241   7.2821649029860200   13.4312223202
11.6161412873866539   7.2825346947677314   13.4308559443
11.6159550256660165   5.1089049869885983   12.1852334332
