Al Fe Al  O  C                          
   1.00000000000000     
    14.3189123190275875    0.0000000000000000    0.0000000000000000
     7.1594561595137938   12.4005418228398376    0.0000000000000000
   0.0000000000   0.0000000000   32.0997961998
   Al   Fe   Al   O    C 
   111     2    12     1     1
Selective dynamics
Direct
0.9333333333333300   0.1333333333333329   0.3115284576   F   F   F
0.1333333333333329   0.1333333333333329   0.3115284576   F   F   F
0.3333333333333357   0.1333333333333329   0.3115284576   F   F   F
0.5333333333333314   0.1333333333333329   0.3115284576   F   F   F
0.7333333333333343   0.1333333333333329   0.3115284576   F   F   F
0.9333333333333300   0.3333333333333357   0.3115284576   F   F   F
0.1333333333333329   0.3333333333333357   0.3115284576   F   F   F
0.3333333333333357   0.3333333333333357   0.3115284576   F   F   F
0.5333333333333314   0.3333333333333357   0.3115284576   F   F   F
0.7333333333333343   0.3333333333333357   0.3115284576   F   F   F
0.9333333333333300   0.5333333333333314   0.3115284576   F   F   F
0.1333333333333329   0.5333333333333314   0.3115284576   F   F   F
0.3333333333333357   0.5333333333333314   0.3115284576   F   F   F
0.5333333333333314   0.5333333333333314   0.3115284576   F   F   F
0.7333333333333343   0.5333333333333314   0.3115284576   F   F   F
0.9333333333333300   0.7333333333333343   0.3115284576   F   F   F
0.1333333333333329   0.7333333333333343   0.3115284576   F   F   F
0.3333333333333357   0.7333333333333343   0.3115284576   F   F   F
0.5333333333333314   0.7333333333333343   0.3115284576   F   F   F
0.7333333333333343   0.7333333333333343   0.3115284576   F   F   F
0.9333333333333300   0.9333333333333371   0.3115284576   F   F   F
0.1333333333333329   0.9333333333333371   0.3115284576   F   F   F
0.3333333333333357   0.9333333333333371   0.3115284576   F   F   F
0.5333333333333314   0.9333333333333371   0.3115284576   F   F   F
0.7333333333333343   0.9333333333333371   0.3115284576   F   F   F
0.0000000000000000   0.0000000000000000   0.3843721784   F   F   F
0.2000000000000028   0.0000000000000000   0.3843721784   F   F   F
0.3999999999999986   0.0000000000000000   0.3843721784   F   F   F
0.6000000000000014   0.0000000000000000   0.3843721784   F   F   F
0.7999999999999972   0.0000000000000000   0.3843721784   F   F   F
0.0000000000000000   0.2000000000000028   0.3843721784   F   F   F
0.2000000000000028   0.2000000000000028   0.3843721784   F   F   F
0.3999999999999986   0.2000000000000028   0.3843721784   F   F   F
0.6000000000000014   0.2000000000000028   0.3843721784   F   F   F
0.7999999999999972   0.2000000000000028   0.3843721784   F   F   F
0.0000000000000000   0.3999999999999986   0.3843721784   F   F   F
0.2000000000000028   0.3999999999999986   0.3843721784   F   F   F
0.3999999999999986   0.3999999999999986   0.3843721784   F   F   F
0.6000000000000014   0.3999999999999986   0.3843721784   F   F   F
0.7999999999999972   0.3999999999999986   0.3843721784   F   F   F
0.0000000000000000   0.6000000000000014   0.3843721784   F   F   F
0.2000000000000028   0.6000000000000014   0.3843721784   F   F   F
0.3999999999999986   0.6000000000000014   0.3843721784   F   F   F
0.6000000000000014   0.6000000000000014   0.3843721784   F   F   F
0.7999999999999972   0.6000000000000014   0.3843721784   F   F   F
0.0000000000000000   0.7999999999999972   0.3843721784   F   F   F
0.2000000000000028   0.7999999999999972   0.3843721784   F   F   F
0.3999999999999986   0.7999999999999972   0.3843721784   F   F   F
0.6000000000000014   0.7999999999999972   0.3843721784   F   F   F
0.7999999999999972   0.7999999999999972   0.3843721784   F   F   F
0.0666666666666700   0.0666666666666700   0.4572158991   F   F   F
0.2666666666666657   0.0666666666666700   0.4572158991   F   F   F
0.4666666666666686   0.0666666666666700   0.4572158991   F   F   F
0.6666666666666643   0.0666666666666700   0.4572158991   F   F   F
0.8666666666666671   0.0666666666666700   0.4572158991   F   F   F
0.0666666666666700   0.2666666666666657   0.4572158991   F   F   F
0.2666666666666657   0.2666666666666657   0.4572158991   F   F   F
0.4666666666666686   0.2666666666666657   0.4572158991   F   F   F
0.6666666666666643   0.2666666666666657   0.4572158991   F   F   F
0.8666666666666671   0.2666666666666657   0.4572158991   F   F   F
0.0666666666666700   0.4666666666666686   0.4572158991   F   F   F
0.2666666666666657   0.4666666666666686   0.4572158991   F   F   F
0.4666666666666686   0.4666666666666686   0.4572158991   F   F   F
0.6666666666666643   0.4666666666666686   0.4572158991   F   F   F
0.8666666666666671   0.4666666666666686   0.4572158991   F   F   F
0.0666666666666700   0.6666666666666643   0.4572158991   F   F   F
0.2666666666666657   0.6666666666666643   0.4572158991   F   F   F
0.4666666666666686   0.6666666666666643   0.4572158991   F   F   F
0.6666666666666643   0.6666666666666643   0.4572158991   F   F   F
0.8666666666666671   0.6666666666666643   0.4572158991   F   F   F
0.0666666666666700   0.8666666666666671   0.4572158991   F   F   F
0.2666666666666657   0.8666666666666671   0.4572158991   F   F   F
0.4666666666666686   0.8666666666666671   0.4572158991   F   F   F
0.6666666666666643   0.8666666666666671   0.4572158991   F   F   F
0.8666666666666671   0.8666666666666671   0.4572158991   F   F   F
0.9317301798112620   0.1339481981678314   0.5299380347   T   T   T
0.1345471377597598   0.1327509390945761   0.5301063409   T   T   T
0.3337213615958613   0.1355997705170278   0.5295629744   T   T   T
0.5292177911227078   0.1346601479877031   0.5288184852   T   T   T
0.7307483117557894   0.1328598474507288   0.5299702902   T   T   T
0.9327424774888399   0.3336434982769078   0.5298070204   T   T   T
0.1320423099514877   0.3330688519351434   0.5281448794   T   T   T
0.3294418134376855   0.3425752879438405   0.5316818392   T   T   T
0.5307746436032120   0.3343579557066176   0.5291515433   T   T   T
0.7319746466819942   0.3332411098263999   0.5296381178   T   T   T
0.9291289296861749   0.5346754029201450   0.5289060592   T   T   T
0.1303052404495023   0.5307460329237064   0.5280294868   T   T   T
0.3392890481259727   0.5301468415351623   0.5289157448   T   T   T
0.5351885333393652   0.5356925933477434   0.5281526167   T   T   T
0.7323749007791145   0.5339637507825541   0.5300115168   T   T   T
0.9330352744145171   0.7310732592240311   0.5304196894   T   T   T
0.1375919539075580   0.7240881881973122   0.5311405135   T   T   T
0.3342877035077256   0.7319475164278170   0.5304076449   T   T   T
0.5323914631003325   0.7354177487734418   0.5305978600   T   T   T
0.7309241266318797   0.7351148107858140   0.5306207936   T   T   T
0.9348263995473128   0.9297837593183892   0.5300650146   T   T   T
0.1335327279313450   0.9298135054724866   0.5303654715   T   T   T
0.3328854859680322   0.9333323892607770   0.5302156233   T   T   T
0.5317121612964748   0.9346434717424466   0.5305093636   T   T   T
0.7324388768752661   0.9331142119748148   0.5304079113   T   T   T
-0.0003074087801589   -0.0020807200114028   0.6029968136   T   T   T
0.1987488478887226   -0.0007236817782836   0.6032120269   T   T   T
0.3956469014576794   0.0083581119466533   0.6027359750   T   T   T
0.5913395299748024   0.0108604452198241   0.6028185269   T   T   T
0.7995708711161685   -0.0017830552266618   0.6030193902   T   T   T
0.0000177214970841   0.2002398229097193   0.6028442101   T   T   T
0.2005413735200780   0.2092385916042649   0.6018120550   T   T   T
0.3823043707618737   0.2331496328425630   0.6028729534   T   T   T
0.5897877154874386   0.2080129335166995   0.6005921151   T   T   T
0.7953396717411615   0.2007446732719831   0.6029139429   T   T   T
0.0041288552085884   0.3998680303573504   0.6010487371   T   T   T
0.1874057129617164   0.3990571675861087   0.5888503734   T   T   T
0.4136991279608978   0.4008941286777312   0.5966415499   T   T   T
0.5948358888241988   0.4007792687670057   0.5999807127   T   T   T
0.7992470993161137   0.3999755984914875   0.6030561174   T   T   T
0.0098874783855959   0.5903423162164949   0.6018727991   T   T   T
0.2194217337594675   0.5596914260982785   0.6001004428   T   T   T
0.3989821686758209   0.5929152714702320   0.6008483455   T   T   T
0.5965321668940611   0.5989639521795492   0.6032756643   T   T   T
0.8016302330663249   0.5986234649550207   0.6032898081   T   T   T
0.0032954709660712   0.7926013900986948   0.6031169065   T   T   T
0.2019628271540751   0.7906503566777945   0.6034542887   T   T   T
0.3984122956880530   0.8019562608559038   0.6041901158   T   T   T
0.5975100889192517   0.8029664677799587   0.6051338931   T   T   T
0.7984516513820874   0.8000698498757137   0.6043961499   T   T   T
0.4170625080175686   0.4025723163677702   0.6884715424   T   T   T
0.4143320976367207   0.4016051494500798   0.6518722005   T   T   T
 
  0.00000000E+00  0.00000000E+00  0.00000000E+00
  0.00000000E+00  0.00000000E+00  0.00000000E+00
  0.00000000E+00  0.00000000E+00  0.00000000E+00
  0.00000000E+00  0.00000000E+00  0.00000000E+00
  0.00000000E+00  0.00000000E+00  0.00000000E+00
  0.00000000E+00  0.00000000E+00  0.00000000E+00
  0.00000000E+00  0.00000000E+00  0.00000000E+00
  0.00000000E+00  0.00000000E+00  0.00000000E+00
  0.00000000E+00  0.00000000E+00  0.00000000E+00
  0.00000000E+00  0.00000000E+00  0.00000000E+00
  0.00000000E+00  0.00000000E+00  0.00000000E+00
  0.00000000E+00  0.00000000E+00  0.00000000E+00
  0.00000000E+00  0.00000000E+00  0.00000000E+00
  0.00000000E+00  0.00000000E+00  0.00000000E+00
  0.00000000E+00  0.00000000E+00  0.00000000E+00
  0.00000000E+00  0.00000000E+00  0.00000000E+00
  0.00000000E+00  0.00000000E+00  0.00000000E+00
  0.00000000E+00  0.00000000E+00  0.00000000E+00
  0.00000000E+00  0.00000000E+00  0.00000000E+00
  0.00000000E+00  0.00000000E+00  0.00000000E+00
  0.00000000E+00  0.00000000E+00  0.00000000E+00
  0.00000000E+00  0.00000000E+00  0.00000000E+00
  0.00000000E+00  0.00000000E+00  0.00000000E+00
  0.00000000E+00  0.00000000E+00  0.00000000E+00
  0.00000000E+00  0.00000000E+00  0.00000000E+00
  0.00000000E+00  0.00000000E+00  0.00000000E+00
  0.00000000E+00  0.00000000E+00  0.00000000E+00
  0.00000000E+00  0.00000000E+00  0.00000000E+00
  0.00000000E+00  0.00000000E+00  0.00000000E+00
  0.00000000E+00  0.00000000E+00  0.00000000E+00
  0.00000000E+00  0.00000000E+00  0.00000000E+00
  0.00000000E+00  0.00000000E+00  0.00000000E+00
  0.00000000E+00  0.00000000E+00  0.00000000E+00
  0.00000000E+00  0.00000000E+00  0.00000000E+00
  0.00000000E+00  0.00000000E+00  0.00000000E+00
  0.00000000E+00  0.00000000E+00  0.00000000E+00
  0.00000000E+00  0.00000000E+00  0.00000000E+00
  0.00000000E+00  0.00000000E+00  0.00000000E+00
  0.00000000E+00  0.00000000E+00  0.00000000E+00
  0.00000000E+00  0.00000000E+00  0.00000000E+00
  0.00000000E+00  0.00000000E+00  0.00000000E+00
  0.00000000E+00  0.00000000E+00  0.00000000E+00
  0.00000000E+00  0.00000000E+00  0.00000000E+00
  0.00000000E+00  0.00000000E+00  0.00000000E+00
  0.00000000E+00  0.00000000E+00  0.00000000E+00
  0.00000000E+00  0.00000000E+00  0.00000000E+00
  0.00000000E+00  0.00000000E+00  0.00000000E+00
  0.00000000E+00  0.00000000E+00  0.00000000E+00
  0.00000000E+00  0.00000000E+00  0.00000000E+00
  0.00000000E+00  0.00000000E+00  0.00000000E+00
  0.00000000E+00  0.00000000E+00  0.00000000E+00
  0.00000000E+00  0.00000000E+00  0.00000000E+00
  0.00000000E+00  0.00000000E+00  0.00000000E+00
  0.00000000E+00  0.00000000E+00  0.00000000E+00
  0.00000000E+00  0.00000000E+00  0.00000000E+00
  0.00000000E+00  0.00000000E+00  0.00000000E+00
  0.00000000E+00  0.00000000E+00  0.00000000E+00
  0.00000000E+00  0.00000000E+00  0.00000000E+00
  0.00000000E+00  0.00000000E+00  0.00000000E+00
  0.00000000E+00  0.00000000E+00  0.00000000E+00
  0.00000000E+00  0.00000000E+00  0.00000000E+00
  0.00000000E+00  0.00000000E+00  0.00000000E+00
  0.00000000E+00  0.00000000E+00  0.00000000E+00
  0.00000000E+00  0.00000000E+00  0.00000000E+00
  0.00000000E+00  0.00000000E+00  0.00000000E+00
  0.00000000E+00  0.00000000E+00  0.00000000E+00
  0.00000000E+00  0.00000000E+00  0.00000000E+00
  0.00000000E+00  0.00000000E+00  0.00000000E+00
  0.00000000E+00  0.00000000E+00  0.00000000E+00
  0.00000000E+00  0.00000000E+00  0.00000000E+00
  0.00000000E+00  0.00000000E+00  0.00000000E+00
  0.00000000E+00  0.00000000E+00  0.00000000E+00
  0.00000000E+00  0.00000000E+00  0.00000000E+00
  0.00000000E+00  0.00000000E+00  0.00000000E+00
  0.00000000E+00  0.00000000E+00  0.00000000E+00
  0.00000000E+00  0.00000000E+00  0.00000000E+00
  0.00000000E+00  0.00000000E+00  0.00000000E+00
  0.00000000E+00  0.00000000E+00  0.00000000E+00
  0.00000000E+00  0.00000000E+00  0.00000000E+00
  0.00000000E+00  0.00000000E+00  0.00000000E+00
  0.00000000E+00  0.00000000E+00  0.00000000E+00
  0.00000000E+00  0.00000000E+00  0.00000000E+00
  0.00000000E+00  0.00000000E+00  0.00000000E+00
  0.00000000E+00  0.00000000E+00  0.00000000E+00
  0.00000000E+00  0.00000000E+00  0.00000000E+00
  0.00000000E+00  0.00000000E+00  0.00000000E+00
  0.00000000E+00  0.00000000E+00  0.00000000E+00
  0.00000000E+00  0.00000000E+00  0.00000000E+00
  0.00000000E+00  0.00000000E+00  0.00000000E+00
  0.00000000E+00  0.00000000E+00  0.00000000E+00
  0.00000000E+00  0.00000000E+00  0.00000000E+00
  0.00000000E+00  0.00000000E+00  0.00000000E+00
  0.00000000E+00  0.00000000E+00  0.00000000E+00
  0.00000000E+00  0.00000000E+00  0.00000000E+00
  0.00000000E+00  0.00000000E+00  0.00000000E+00
  0.00000000E+00  0.00000000E+00  0.00000000E+00
  0.00000000E+00  0.00000000E+00  0.00000000E+00
  0.00000000E+00  0.00000000E+00  0.00000000E+00
  0.00000000E+00  0.00000000E+00  0.00000000E+00
  0.00000000E+00  0.00000000E+00  0.00000000E+00
  0.00000000E+00  0.00000000E+00  0.00000000E+00
  0.00000000E+00  0.00000000E+00  0.00000000E+00
  0.00000000E+00  0.00000000E+00  0.00000000E+00
  0.00000000E+00  0.00000000E+00  0.00000000E+00
  0.00000000E+00  0.00000000E+00  0.00000000E+00
  0.00000000E+00  0.00000000E+00  0.00000000E+00
  0.00000000E+00  0.00000000E+00  0.00000000E+00
  0.00000000E+00  0.00000000E+00  0.00000000E+00
  0.00000000E+00  0.00000000E+00  0.00000000E+00
  0.00000000E+00  0.00000000E+00  0.00000000E+00
  0.00000000E+00  0.00000000E+00  0.00000000E+00
  0.00000000E+00  0.00000000E+00  0.00000000E+00
  0.00000000E+00  0.00000000E+00  0.00000000E+00
  0.00000000E+00  0.00000000E+00  0.00000000E+00
  0.00000000E+00  0.00000000E+00  0.00000000E+00
  0.00000000E+00  0.00000000E+00  0.00000000E+00
  0.00000000E+00  0.00000000E+00  0.00000000E+00
  0.00000000E+00  0.00000000E+00  0.00000000E+00
  0.00000000E+00  0.00000000E+00  0.00000000E+00
  0.00000000E+00  0.00000000E+00  0.00000000E+00
  0.00000000E+00  0.00000000E+00  0.00000000E+00
  0.00000000E+00  0.00000000E+00  0.00000000E+00
  0.00000000E+00  0.00000000E+00  0.00000000E+00
  0.00000000E+00  0.00000000E+00  0.00000000E+00
  0.00000000E+00  0.00000000E+00  0.00000000E+00
  0.00000000E+00  0.00000000E+00  0.00000000E+00
  0.00000000E+00  0.00000000E+00  0.00000000E+00
