Al  C  O  H                             
   1.00000000000000     
    14.3189123190275875    0.0000000000000000    0.0000000000000000
     7.1594561595137938   12.4005418228398376    0.0000000000000000
   0.0000000000   0.0000000000   32.3162332339
   Al   C    O    H 
   125     1     1     1
Selective dynamics
Direct
0.9333333333333300   0.1333333333333329   0.3094420048   F   F   F
0.1333333333333329   0.1333333333333329   0.3094420048   F   F   F
0.3333333333333357   0.1333333333333329   0.3094420048   F   F   F
0.5333333333333314   0.1333333333333329   0.3094420048   F   F   F
0.7333333333333343   0.1333333333333329   0.3094420048   F   F   F
0.9333333333333300   0.3333333333333357   0.3094420048   F   F   F
0.1333333333333329   0.3333333333333357   0.3094420048   F   F   F
0.3333333333333357   0.3333333333333357   0.3094420048   F   F   F
0.5333333333333314   0.3333333333333357   0.3094420048   F   F   F
0.7333333333333343   0.3333333333333357   0.3094420048   F   F   F
0.9333333333333300   0.5333333333333314   0.3094420048   F   F   F
0.1333333333333329   0.5333333333333314   0.3094420048   F   F   F
0.3333333333333357   0.5333333333333314   0.3094420048   F   F   F
0.5333333333333314   0.5333333333333314   0.3094420048   F   F   F
0.7333333333333343   0.5333333333333314   0.3094420048   F   F   F
0.9333333333333300   0.7333333333333343   0.3094420048   F   F   F
0.1333333333333329   0.7333333333333343   0.3094420048   F   F   F
0.3333333333333357   0.7333333333333343   0.3094420048   F   F   F
0.5333333333333314   0.7333333333333343   0.3094420048   F   F   F
0.7333333333333343   0.7333333333333343   0.3094420048   F   F   F
0.9333333333333300   0.9333333333333371   0.3094420048   F   F   F
0.1333333333333329   0.9333333333333371   0.3094420048   F   F   F
0.3333333333333357   0.9333333333333371   0.3094420048   F   F   F
0.5333333333333314   0.9333333333333371   0.3094420048   F   F   F
0.7333333333333343   0.9333333333333371   0.3094420048   F   F   F
0.0000000000000000   0.0000000000000000   0.3817978569   F   F   F
0.2000000000000028   0.0000000000000000   0.3817978569   F   F   F
0.3999999999999986   0.0000000000000000   0.3817978569   F   F   F
0.6000000000000014   0.0000000000000000   0.3817978569   F   F   F
0.7999999999999972   0.0000000000000000   0.3817978569   F   F   F
0.0000000000000000   0.2000000000000028   0.3817978569   F   F   F
0.2000000000000028   0.2000000000000028   0.3817978569   F   F   F
0.3999999999999986   0.2000000000000028   0.3817978569   F   F   F
0.6000000000000014   0.2000000000000028   0.3817978569   F   F   F
0.7999999999999972   0.2000000000000028   0.3817978569   F   F   F
0.0000000000000000   0.3999999999999986   0.3817978569   F   F   F
0.2000000000000028   0.3999999999999986   0.3817978569   F   F   F
0.3999999999999986   0.3999999999999986   0.3817978569   F   F   F
0.6000000000000014   0.3999999999999986   0.3817978569   F   F   F
0.7999999999999972   0.3999999999999986   0.3817978569   F   F   F
0.0000000000000000   0.6000000000000014   0.3817978569   F   F   F
0.2000000000000028   0.6000000000000014   0.3817978569   F   F   F
0.3999999999999986   0.6000000000000014   0.3817978569   F   F   F
0.6000000000000014   0.6000000000000014   0.3817978569   F   F   F
0.7999999999999972   0.6000000000000014   0.3817978569   F   F   F
0.0000000000000000   0.7999999999999972   0.3817978569   F   F   F
0.2000000000000028   0.7999999999999972   0.3817978569   F   F   F
0.3999999999999986   0.7999999999999972   0.3817978569   F   F   F
0.6000000000000014   0.7999999999999972   0.3817978569   F   F   F
0.7999999999999972   0.7999999999999972   0.3817978569   F   F   F
0.0666666666666700   0.0666666666666700   0.4541537089   F   F   F
0.2666666666666657   0.0666666666666700   0.4541537089   F   F   F
0.4666666666666686   0.0666666666666700   0.4541537089   F   F   F
0.6666666666666643   0.0666666666666700   0.4541537089   F   F   F
0.8666666666666671   0.0666666666666700   0.4541537089   F   F   F
0.0666666666666700   0.2666666666666657   0.4541537089   F   F   F
0.2666666666666657   0.2666666666666657   0.4541537089   F   F   F
0.4666666666666686   0.2666666666666657   0.4541537089   F   F   F
0.6666666666666643   0.2666666666666657   0.4541537089   F   F   F
0.8666666666666671   0.2666666666666657   0.4541537089   F   F   F
0.0666666666666700   0.4666666666666686   0.4541537089   F   F   F
0.2666666666666657   0.4666666666666686   0.4541537089   F   F   F
0.4666666666666686   0.4666666666666686   0.4541537089   F   F   F
0.6666666666666643   0.4666666666666686   0.4541537089   F   F   F
0.8666666666666671   0.4666666666666686   0.4541537089   F   F   F
0.0666666666666700   0.6666666666666643   0.4541537089   F   F   F
0.2666666666666657   0.6666666666666643   0.4541537089   F   F   F
0.4666666666666686   0.6666666666666643   0.4541537089   F   F   F
0.6666666666666643   0.6666666666666643   0.4541537089   F   F   F
0.8666666666666671   0.6666666666666643   0.4541537089   F   F   F
0.0666666666666700   0.8666666666666671   0.4541537089   F   F   F
0.2666666666666657   0.8666666666666671   0.4541537089   F   F   F
0.4666666666666686   0.8666666666666671   0.4541537089   F   F   F
0.6666666666666643   0.8666666666666671   0.4541537089   F   F   F
0.8666666666666671   0.8666666666666671   0.4541537089   F   F   F
0.9355159082840224   0.1339790457335402   0.5265868143   T   T   T
0.1340614508277180   0.1354720386509210   0.5264871344   T   T   T
0.3336519912738718   0.1363668502301117   0.5271233635   T   T   T
0.5334604102273026   0.1363341565116867   0.5272300289   T   T   T
0.7347855814117785   0.1345275616524423   0.5259950937   T   T   T
0.9356227383403051   0.3343019446382944   0.5266653230   T   T   T
0.1352268858479597   0.3360534257985898   0.5268304558   T   T   T
0.3329225322701988   0.3356376908230462   0.5273027050   T   T   T
0.5357642184325888   0.3345492584289522   0.5258781804   T   T   T
0.7347088178439272   0.3344600404491992   0.5262955411   T   T   T
0.9341734076527700   0.5349288763469334   0.5269991601   T   T   T
0.1347559918073258   0.5343018346080799   0.5272003325   T   T   T
0.3321983755650587   0.5374993039818304   0.5260234888   T   T   T
0.5345145636687392   0.5361223860929089   0.5265773617   T   T   T
0.7343150217082711   0.5353071329183079   0.5268136004   T   T   T
0.9324633641015643   0.7346731952969505   0.5266174965   T   T   T
0.1324619972183083   0.7365397802082742   0.5262161479   T   T   T
0.3329892550832240   0.7359723577467958   0.5265126030   T   T   T
0.5332427310367120   0.7366572875248074   0.5268766988   T   T   T
0.7328202570919785   0.7356449064476848   0.5269902577   T   T   T
0.9334116404343810   0.9346756879139255   0.5265934120   T   T   T
0.1337634895103607   0.9359308274425603   0.5267508829   T   T   T
0.3330770995396903   0.9367821123861353   0.5267315471   T   T   T
0.5331160860244677   0.9365428920343205   0.5272356228   T   T   T
0.7330946525367553   0.9354499630499017   0.5265161779   T   T   T
0.0027892631541412   0.0029853240548591   0.5994470510   T   T   T
0.2010875850874304   0.0043953495889187   0.5998146947   T   T   T
0.4008624213263015   0.0041798012457137   0.6009652644   T   T   T
0.6036253362176417   0.0034760135496462   0.6005779427   T   T   T
0.8034324215340503   0.0023958502242446   0.5993716889   T   T   T
0.0006078917009235   0.2038598978340371   0.5996840595   T   T   T
0.1987570385542546   0.2026322435665086   0.5985148381   T   T   T
0.4061537383301648   0.1977637595354322   0.6006063379   T   T   T
0.6105500570195732   0.2011854140201990   0.5978032185   T   T   T
0.8050662548627818   0.2020353093746793   0.5988123112   T   T   T
0.0063746446931120   0.4045015439752911   0.6000346668   T   T   T
0.2066005881509052   0.4059752628590180   0.6023624751   T   T   T
0.4091751725572048   0.4122059204593059   0.5985982190   T   T   T
0.6073941567297899   0.4042480054860982   0.5989296724   T   T   T
0.8053343185634921   0.4025752560990752   0.5997684706   T   T   T
0.0051994589622092   0.6014130140509569   0.5999096842   T   T   T
0.1972120335939263   0.6138799245446640   0.5975501603   T   T   T
0.4020894165217085   0.6097489061282637   0.5995266484   T   T   T
0.6024127038807515   0.6053089864882431   0.5992571579   T   T   T
0.8016518400855333   0.6032239105087556   0.5999069192   T   T   T
-0.0018356341734773   0.8047605507753944   0.5995139229   T   T   T
0.2009284685020229   0.8071706348082661   0.5992497464   T   T   T
0.4007488838351705   0.8053734839827350   0.6004072942   T   T   T
0.6008490964934761   0.8042856099684081   0.6000694259   T   T   T
0.8014657062582127   0.8018438227649095   0.6001027240   T   T   T
0.3567285213821519   0.3317392035918896   0.6345216856   T   T   T
0.3653985409283200   0.3419310840317404   0.6775902991   T   T   T
0.3825523284391627   0.2739915471609106   0.6905579952   T   T   T
 
  0.00000000E+00  0.00000000E+00  0.00000000E+00
  0.00000000E+00  0.00000000E+00  0.00000000E+00
  0.00000000E+00  0.00000000E+00  0.00000000E+00
  0.00000000E+00  0.00000000E+00  0.00000000E+00
  0.00000000E+00  0.00000000E+00  0.00000000E+00
  0.00000000E+00  0.00000000E+00  0.00000000E+00
  0.00000000E+00  0.00000000E+00  0.00000000E+00
  0.00000000E+00  0.00000000E+00  0.00000000E+00
  0.00000000E+00  0.00000000E+00  0.00000000E+00
  0.00000000E+00  0.00000000E+00  0.00000000E+00
  0.00000000E+00  0.00000000E+00  0.00000000E+00
  0.00000000E+00  0.00000000E+00  0.00000000E+00
  0.00000000E+00  0.00000000E+00  0.00000000E+00
  0.00000000E+00  0.00000000E+00  0.00000000E+00
  0.00000000E+00  0.00000000E+00  0.00000000E+00
  0.00000000E+00  0.00000000E+00  0.00000000E+00
  0.00000000E+00  0.00000000E+00  0.00000000E+00
  0.00000000E+00  0.00000000E+00  0.00000000E+00
  0.00000000E+00  0.00000000E+00  0.00000000E+00
  0.00000000E+00  0.00000000E+00  0.00000000E+00
  0.00000000E+00  0.00000000E+00  0.00000000E+00
  0.00000000E+00  0.00000000E+00  0.00000000E+00
  0.00000000E+00  0.00000000E+00  0.00000000E+00
  0.00000000E+00  0.00000000E+00  0.00000000E+00
  0.00000000E+00  0.00000000E+00  0.00000000E+00
  0.00000000E+00  0.00000000E+00  0.00000000E+00
  0.00000000E+00  0.00000000E+00  0.00000000E+00
  0.00000000E+00  0.00000000E+00  0.00000000E+00
  0.00000000E+00  0.00000000E+00  0.00000000E+00
  0.00000000E+00  0.00000000E+00  0.00000000E+00
  0.00000000E+00  0.00000000E+00  0.00000000E+00
  0.00000000E+00  0.00000000E+00  0.00000000E+00
  0.00000000E+00  0.00000000E+00  0.00000000E+00
  0.00000000E+00  0.00000000E+00  0.00000000E+00
  0.00000000E+00  0.00000000E+00  0.00000000E+00
  0.00000000E+00  0.00000000E+00  0.00000000E+00
  0.00000000E+00  0.00000000E+00  0.00000000E+00
  0.00000000E+00  0.00000000E+00  0.00000000E+00
  0.00000000E+00  0.00000000E+00  0.00000000E+00
  0.00000000E+00  0.00000000E+00  0.00000000E+00
  0.00000000E+00  0.00000000E+00  0.00000000E+00
  0.00000000E+00  0.00000000E+00  0.00000000E+00
  0.00000000E+00  0.00000000E+00  0.00000000E+00
  0.00000000E+00  0.00000000E+00  0.00000000E+00
  0.00000000E+00  0.00000000E+00  0.00000000E+00
  0.00000000E+00  0.00000000E+00  0.00000000E+00
  0.00000000E+00  0.00000000E+00  0.00000000E+00
  0.00000000E+00  0.00000000E+00  0.00000000E+00
  0.00000000E+00  0.00000000E+00  0.00000000E+00
  0.00000000E+00  0.00000000E+00  0.00000000E+00
  0.00000000E+00  0.00000000E+00  0.00000000E+00
  0.00000000E+00  0.00000000E+00  0.00000000E+00
  0.00000000E+00  0.00000000E+00  0.00000000E+00
  0.00000000E+00  0.00000000E+00  0.00000000E+00
  0.00000000E+00  0.00000000E+00  0.00000000E+00
  0.00000000E+00  0.00000000E+00  0.00000000E+00
  0.00000000E+00  0.00000000E+00  0.00000000E+00
  0.00000000E+00  0.00000000E+00  0.00000000E+00
  0.00000000E+00  0.00000000E+00  0.00000000E+00
  0.00000000E+00  0.00000000E+00  0.00000000E+00
  0.00000000E+00  0.00000000E+00  0.00000000E+00
  0.00000000E+00  0.00000000E+00  0.00000000E+00
  0.00000000E+00  0.00000000E+00  0.00000000E+00
  0.00000000E+00  0.00000000E+00  0.00000000E+00
  0.00000000E+00  0.00000000E+00  0.00000000E+00
  0.00000000E+00  0.00000000E+00  0.00000000E+00
  0.00000000E+00  0.00000000E+00  0.00000000E+00
  0.00000000E+00  0.00000000E+00  0.00000000E+00
  0.00000000E+00  0.00000000E+00  0.00000000E+00
  0.00000000E+00  0.00000000E+00  0.00000000E+00
  0.00000000E+00  0.00000000E+00  0.00000000E+00
  0.00000000E+00  0.00000000E+00  0.00000000E+00
  0.00000000E+00  0.00000000E+00  0.00000000E+00
  0.00000000E+00  0.00000000E+00  0.00000000E+00
  0.00000000E+00  0.00000000E+00  0.00000000E+00
  0.00000000E+00  0.00000000E+00  0.00000000E+00
  0.00000000E+00  0.00000000E+00  0.00000000E+00
  0.00000000E+00  0.00000000E+00  0.00000000E+00
  0.00000000E+00  0.00000000E+00  0.00000000E+00
  0.00000000E+00  0.00000000E+00  0.00000000E+00
  0.00000000E+00  0.00000000E+00  0.00000000E+00
  0.00000000E+00  0.00000000E+00  0.00000000E+00
  0.00000000E+00  0.00000000E+00  0.00000000E+00
  0.00000000E+00  0.00000000E+00  0.00000000E+00
  0.00000000E+00  0.00000000E+00  0.00000000E+00
  0.00000000E+00  0.00000000E+00  0.00000000E+00
  0.00000000E+00  0.00000000E+00  0.00000000E+00
  0.00000000E+00  0.00000000E+00  0.00000000E+00
  0.00000000E+00  0.00000000E+00  0.00000000E+00
  0.00000000E+00  0.00000000E+00  0.00000000E+00
  0.00000000E+00  0.00000000E+00  0.00000000E+00
  0.00000000E+00  0.00000000E+00  0.00000000E+00
  0.00000000E+00  0.00000000E+00  0.00000000E+00
  0.00000000E+00  0.00000000E+00  0.00000000E+00
  0.00000000E+00  0.00000000E+00  0.00000000E+00
  0.00000000E+00  0.00000000E+00  0.00000000E+00
  0.00000000E+00  0.00000000E+00  0.00000000E+00
  0.00000000E+00  0.00000000E+00  0.00000000E+00
  0.00000000E+00  0.00000000E+00  0.00000000E+00
  0.00000000E+00  0.00000000E+00  0.00000000E+00
  0.00000000E+00  0.00000000E+00  0.00000000E+00
  0.00000000E+00  0.00000000E+00  0.00000000E+00
  0.00000000E+00  0.00000000E+00  0.00000000E+00
  0.00000000E+00  0.00000000E+00  0.00000000E+00
  0.00000000E+00  0.00000000E+00  0.00000000E+00
  0.00000000E+00  0.00000000E+00  0.00000000E+00
  0.00000000E+00  0.00000000E+00  0.00000000E+00
  0.00000000E+00  0.00000000E+00  0.00000000E+00
  0.00000000E+00  0.00000000E+00  0.00000000E+00
  0.00000000E+00  0.00000000E+00  0.00000000E+00
  0.00000000E+00  0.00000000E+00  0.00000000E+00
  0.00000000E+00  0.00000000E+00  0.00000000E+00
  0.00000000E+00  0.00000000E+00  0.00000000E+00
  0.00000000E+00  0.00000000E+00  0.00000000E+00
  0.00000000E+00  0.00000000E+00  0.00000000E+00
  0.00000000E+00  0.00000000E+00  0.00000000E+00
  0.00000000E+00  0.00000000E+00  0.00000000E+00
  0.00000000E+00  0.00000000E+00  0.00000000E+00
  0.00000000E+00  0.00000000E+00  0.00000000E+00
  0.00000000E+00  0.00000000E+00  0.00000000E+00
  0.00000000E+00  0.00000000E+00  0.00000000E+00
  0.00000000E+00  0.00000000E+00  0.00000000E+00
  0.00000000E+00  0.00000000E+00  0.00000000E+00
  0.00000000E+00  0.00000000E+00  0.00000000E+00
  0.00000000E+00  0.00000000E+00  0.00000000E+00
  0.00000000E+00  0.00000000E+00  0.00000000E+00
  0.00000000E+00  0.00000000E+00  0.00000000E+00
  0.00000000E+00  0.00000000E+00  0.00000000E+00
