Al Fe  O 
 1.0000000000000000
    14.3189123190275875    0.0000000000000000    0.0000000000000000
     7.1594561595137938   12.4005418228398376    0.0000000000000000
   0.0000000000   0.0000000000   30.2423773265
 Al  Fe  O  
 123   2   1
Selective dynamics
Cartesian
15.0579309652588229   2.0727253918565918   10.0000000000   F   F   F
3.6028011100367947   2.0727253918565918   10.0000000000   F   F   F
6.4665835738423532   2.0727253918565918   10.0000000000   F   F   F
9.3303660376478099   2.0727253918565918   10.0000000000   F   F   F
12.1941485014533662   2.0727253918565918   10.0000000000   F   F   F
16.4898221971616010   4.5528337564245946   10.0000000000   F   F   F
5.0346923419395733   4.5528337564245946   10.0000000000   F   F   F
7.8984748057451313   4.5528337564245946   10.0000000000   F   F   F
10.7622572695505880   4.5528337564245946   10.0000000000   F   F   F
13.6260397333561460   4.5528337564245946   10.0000000000   F   F   F
17.9217134290643294   7.0329421209925087   10.0000000000   F   F   F
6.4665835738423016   7.0329421209925087   10.0000000000   F   F   F
9.3303660376478597   7.0329421209925087   10.0000000000   F   F   F
12.1941485014533164   7.0329421209925087   10.0000000000   F   F   F
15.0579309652588744   7.0329421209925087   10.0000000000   F   F   F
19.3536046609671075   9.5130504855605125   10.0000000000   F   F   F
7.8984748057450807   9.5130504855605125   10.0000000000   F   F   F
10.7622572695506378   9.5130504855605125   10.0000000000   F   F   F
13.6260397333560945   9.5130504855605125   10.0000000000   F   F   F
16.4898221971616508   9.5130504855605125   10.0000000000   F   F   F
20.7854958928698892   11.9931588501285162   10.0000000000   F   F   F
9.3303660376478597   11.9931588501285162   10.0000000000   F   F   F
12.1941485014534177   11.9931588501285162   10.0000000000   F   F   F
15.0579309652588744   11.9931588501285162   10.0000000000   F   F   F
17.9217134290644324   11.9931588501285162   10.0000000000   F   F   F
0.7390186462312869   0.4193198154779525   12.3382685902   F   F   F
3.6028011100368444   0.4193198154779525   12.3382685902   F   F   F
6.4665835738423016   0.4193198154779525   12.3382685902   F   F   F
9.3303660376478597   0.4193198154779525   12.3382685902   F   F   F
12.1941485014533164   0.4193198154779525   12.3382685902   F   F   F
2.1709098781340659   2.8994281800459545   12.3382685902   F   F   F
5.0346923419396230   2.8994281800459545   12.3382685902   F   F   F
7.8984748057450807   2.8994281800459545   12.3382685902   F   F   F
10.7622572695506378   2.8994281800459545   12.3382685902   F   F   F
13.6260397333560945   2.8994281800459545   12.3382685902   F   F   F
3.6028011100367943   5.3795365446138703   12.3382685902   F   F   F
6.4665835738423514   5.3795365446138703   12.3382685902   F   F   F
9.3303660376478099   5.3795365446138703   12.3382685902   F   F   F
12.1941485014533662   5.3795365446138703   12.3382685902   F   F   F
15.0579309652588229   5.3795365446138703   12.3382685902   F   F   F
5.0346923419395733   7.8596449091818723   12.3382685902   F   F   F
7.8984748057451313   7.8596449091818723   12.3382685902   F   F   F
10.7622572695505880   7.8596449091818723   12.3382685902   F   F   F
13.6260397333561460   7.8596449091818723   12.3382685902   F   F   F
16.4898221971616010   7.8596449091818723   12.3382685902   F   F   F
6.4665835738423016   10.3397532737497890   12.3382685902   F   F   F
9.3303660376478597   10.3397532737497890   12.3382685902   F   F   F
12.1941485014533164   10.3397532737497890   12.3382685902   F   F   F
15.0579309652588744   10.3397532737497890   12.3382685902   F   F   F
17.9217134290643330   10.3397532737497890   12.3382685902   F   F   F
2.1709098781341174   1.2460226036673163   14.6765371804   F   F   F
5.0346923419395733   1.2460226036673163   14.6765371804   F   F   F
7.8984748057451322   1.2460226036673163   14.6765371804   F   F   F
10.7622572695505880   1.2460226036673163   14.6765371804   F   F   F
13.6260397333561460   1.2460226036673163   14.6765371804   F   F   F
3.6028011100368453   3.7261309682352306   14.6765371804   F   F   F
6.4665835738423016   3.7261309682352306   14.6765371804   F   F   F
9.3303660376478597   3.7261309682352306   14.6765371804   F   F   F
12.1941485014533164   3.7261309682352306   14.6765371804   F   F   F
15.0579309652588744   3.7261309682352306   14.6765371804   F   F   F
5.0346923419396248   6.2062393328032339   14.6765371804   F   F   F
7.8984748057450815   6.2062393328032339   14.6765371804   F   F   F
10.7622572695506395   6.2062393328032339   14.6765371804   F   F   F
13.6260397333560963   6.2062393328032339   14.6765371804   F   F   F
16.4898221971616543   6.2062393328032339   14.6765371804   F   F   F
6.4665835738423532   8.6863476973711471   14.6765371804   F   F   F
9.3303660376478099   8.6863476973711471   14.6765371804   F   F   F
12.1941485014533679   8.6863476973711471   14.6765371804   F   F   F
15.0579309652588247   8.6863476973711471   14.6765371804   F   F   F
17.9217134290643827   8.6863476973711471   14.6765371804   F   F   F
7.8984748057451322   11.1664560619391509   14.6765371804   F   F   F
10.7622572695505880   11.1664560619391509   14.6765371804   F   F   F
13.6260397333561478   11.1664560619391509   14.6765371804   F   F   F
16.4898221971616046   11.1664560619391509   14.6765371804   F   F   F
19.3536046609671608   11.1664560619391509   14.6765371804   F   F   F
15.0579318344377402   2.0774111646054765   17.0061446214   T   T   T
3.6300604471064317   2.0684898867430137   17.0124745172   T   T   T
6.5040562664114292   2.0926153014262603   16.9924023870   T   T   T
9.2928927982499552   2.0926173888539239   16.9923577836   T   T   T
12.1669178130572266   2.0684826643547751   17.0124735976   T   T   T
16.4951447102286402   4.5544665433787372   17.0034689145   T   T   T
5.0317614178939056   4.5516202357895912   16.9556423710   T   T   T
7.8984895894297011   4.6580849732732075   17.0405199570   T   T   T
10.7650861812770220   4.5516753133088388   16.9557193853   T   T   T
13.6207525590468599   4.5544636344902951   17.0034725580   T   T   T
17.8785231015687707   7.0525473391700757   16.9733678583   T   T   T
6.4090968629645308   7.0071901274027715   16.9547831872   T   T   T
9.3878658541542990   7.0071387760623827   16.9547220680   T   T   T
12.2373207576065841   7.0525369912616735   16.9733547760   T   T   T
15.0579282186949186   7.0412261061017265   17.0091417133   T   T   T
19.3427513024181401   9.4904661879424737   17.0263799162   T   T   T
7.8984440602749242   9.4107115894550724   17.0461062579   T   T   T
10.7731356426282190   9.4904893247466617   17.0263779264   T   T   T
13.6370840580537944   9.5332895136186728   17.0227538574   T   T   T
16.4787242202681554   9.5332788214270607   17.0227628032   T   T   T
20.7932077206647143   11.9549445117313802   17.0190076596   T   T   T
9.3226630345600565   11.9549071680334364   17.0190122051   T   T   T
12.1960891753730536   11.9914393834300164   17.0213141096   T   T   T
15.0579398144512364   12.0042123532161575   17.0257314179   T   T   T
17.9198278926288879   11.9914470679024525   17.0212871936   T   T   T
0.7390268091034837   0.4027021812772596   19.3484070067   T   T   T
3.6140388982544338   0.4160776293798185   19.3569662047   T   T   T
6.4884880295916147   0.5289326368082481   19.3479702786   T   T   T
9.3084658200578279   0.5289332052293126   19.3479602765   T   T   T
12.1829251383919868   0.4161154213083290   19.3569864846   T   T   T
2.2002458060556940   2.9070775896405991   19.3459736011   T   T   T
5.1343587051649866   3.0223153196214101   19.3086919417   T   T   T
7.8984091006509356   3.3665493518070146   19.3761936851   T   T   T
10.6626014341557358   3.0222767928618910   19.3086842059   T   T   T
13.5967129120060193   2.9070896961296531   19.3459773390   T   T   T
3.6769958319753413   5.3835700625250746   19.2949997446   T   T   T
12.1199672149505275   5.3835415109476390   19.2949566170   T   T   T
15.0579160662867935   5.3769458461589803   19.3542143086   T   T   T
5.1169922877419891   7.7435149999899187   19.3174955656   T   T   T
7.8984177141046832   7.3674622408946231   19.2770353745   T   T   T
10.6799614675089920   7.7435647872637086   19.3174940567   T   T   T
13.5960723062605702   7.8434851048135146   19.3571826825   T   T   T
16.5197464609347904   7.8434855924434279   19.3571866845   T   T   T
6.4791922877984529   10.2517292477128805   19.3610401608   T   T   T
9.3177503722332204   10.2517166589211186   19.3610512508   T   T   T
12.1951418268344423   10.3441046624575854   19.3888492843   T   T   T
15.0579331684873914   10.3668871483601350   19.4101768436   T   T   T
17.9207153900203942   10.3441521385127544   19.3888315718   T   T   T
6.2827528543526814   5.3900554462471861   18.9119625478   T   T   T
9.5142469997379777   5.3900242878567521   18.9118767795   T   T   T
7.8551486957010699   5.4381229517736100   20.2423773265   T   T   T
