Al Fe Al  C  O  H                       
   1.00000000000000     
    14.3189123190275875    0.0000000000000000    0.0000000000000000
     7.1594561595137938   12.4005418228398376    0.0000000000000000
   0.0000000000   0.0000000000   32.0776491573
   Al   Fe   Al   C    O    H 
   112     1    12     1     1     3
Selective dynamics
Direct
0.9333333333333300   0.1333333333333329   0.3117435430   F   F   F
0.1333333333333329   0.1333333333333329   0.3117435430   F   F   F
0.3333333333333357   0.1333333333333329   0.3117435430   F   F   F
0.5333333333333314   0.1333333333333329   0.3117435430   F   F   F
0.7333333333333343   0.1333333333333329   0.3117435430   F   F   F
0.9333333333333300   0.3333333333333357   0.3117435430   F   F   F
0.1333333333333329   0.3333333333333357   0.3117435430   F   F   F
0.3333333333333357   0.3333333333333357   0.3117435430   F   F   F
0.5333333333333314   0.3333333333333357   0.3117435430   F   F   F
0.7333333333333343   0.3333333333333357   0.3117435430   F   F   F
0.9333333333333300   0.5333333333333314   0.3117435430   F   F   F
0.1333333333333329   0.5333333333333314   0.3117435430   F   F   F
0.3333333333333357   0.5333333333333314   0.3117435430   F   F   F
0.5333333333333314   0.5333333333333314   0.3117435430   F   F   F
0.7333333333333343   0.5333333333333314   0.3117435430   F   F   F
0.9333333333333300   0.7333333333333343   0.3117435430   F   F   F
0.1333333333333329   0.7333333333333343   0.3117435430   F   F   F
0.3333333333333357   0.7333333333333343   0.3117435430   F   F   F
0.5333333333333314   0.7333333333333343   0.3117435430   F   F   F
0.7333333333333343   0.7333333333333343   0.3117435430   F   F   F
0.9333333333333300   0.9333333333333371   0.3117435430   F   F   F
0.1333333333333329   0.9333333333333371   0.3117435430   F   F   F
0.3333333333333357   0.9333333333333371   0.3117435430   F   F   F
0.5333333333333314   0.9333333333333371   0.3117435430   F   F   F
0.7333333333333343   0.9333333333333371   0.3117435430   F   F   F
0.0000000000000000   0.0000000000000000   0.3846375565   F   F   F
0.2000000000000028   0.0000000000000000   0.3846375565   F   F   F
0.3999999999999986   0.0000000000000000   0.3846375565   F   F   F
0.6000000000000014   0.0000000000000000   0.3846375565   F   F   F
0.7999999999999972   0.0000000000000000   0.3846375565   F   F   F
0.0000000000000000   0.2000000000000028   0.3846375565   F   F   F
0.2000000000000028   0.2000000000000028   0.3846375565   F   F   F
0.3999999999999986   0.2000000000000028   0.3846375565   F   F   F
0.6000000000000014   0.2000000000000028   0.3846375565   F   F   F
0.7999999999999972   0.2000000000000028   0.3846375565   F   F   F
0.0000000000000000   0.3999999999999986   0.3846375565   F   F   F
0.2000000000000028   0.3999999999999986   0.3846375565   F   F   F
0.3999999999999986   0.3999999999999986   0.3846375565   F   F   F
0.6000000000000014   0.3999999999999986   0.3846375565   F   F   F
0.7999999999999972   0.3999999999999986   0.3846375565   F   F   F
0.0000000000000000   0.6000000000000014   0.3846375565   F   F   F
0.2000000000000028   0.6000000000000014   0.3846375565   F   F   F
0.3999999999999986   0.6000000000000014   0.3846375565   F   F   F
0.6000000000000014   0.6000000000000014   0.3846375565   F   F   F
0.7999999999999972   0.6000000000000014   0.3846375565   F   F   F
0.0000000000000000   0.7999999999999972   0.3846375565   F   F   F
0.2000000000000028   0.7999999999999972   0.3846375565   F   F   F
0.3999999999999986   0.7999999999999972   0.3846375565   F   F   F
0.6000000000000014   0.7999999999999972   0.3846375565   F   F   F
0.7999999999999972   0.7999999999999972   0.3846375565   F   F   F
0.0666666666666700   0.0666666666666700   0.4575315700   F   F   F
0.2666666666666657   0.0666666666666700   0.4575315700   F   F   F
0.4666666666666686   0.0666666666666700   0.4575315700   F   F   F
0.6666666666666643   0.0666666666666700   0.4575315700   F   F   F
0.8666666666666671   0.0666666666666700   0.4575315700   F   F   F
0.0666666666666700   0.2666666666666657   0.4575315700   F   F   F
0.2666666666666657   0.2666666666666657   0.4575315700   F   F   F
0.4666666666666686   0.2666666666666657   0.4575315700   F   F   F
0.6666666666666643   0.2666666666666657   0.4575315700   F   F   F
0.8666666666666671   0.2666666666666657   0.4575315700   F   F   F
0.0666666666666700   0.4666666666666686   0.4575315700   F   F   F
0.2666666666666657   0.4666666666666686   0.4575315700   F   F   F
0.4666666666666686   0.4666666666666686   0.4575315700   F   F   F
0.6666666666666643   0.4666666666666686   0.4575315700   F   F   F
0.8666666666666671   0.4666666666666686   0.4575315700   F   F   F
0.0666666666666700   0.6666666666666643   0.4575315700   F   F   F
0.2666666666666657   0.6666666666666643   0.4575315700   F   F   F
0.4666666666666686   0.6666666666666643   0.4575315700   F   F   F
0.6666666666666643   0.6666666666666643   0.4575315700   F   F   F
0.8666666666666671   0.6666666666666643   0.4575315700   F   F   F
0.0666666666666700   0.8666666666666671   0.4575315700   F   F   F
0.2666666666666657   0.8666666666666671   0.4575315700   F   F   F
0.4666666666666686   0.8666666666666671   0.4575315700   F   F   F
0.6666666666666643   0.8666666666666671   0.4575315700   F   F   F
0.8666666666666671   0.8666666666666671   0.4575315700   F   F   F
0.9324874545037068   0.1338988093784700   0.5302681483   T   T   T
0.1344619872599547   0.1338849006525412   0.5302005088   T   T   T
0.3346124882934240   0.1335051559518242   0.5296563829   T   T   T
0.5356054469513546   0.1298330723594449   0.5281875747   T   T   T
0.7316613003164966   0.1344860398010488   0.5302430252   T   T   T
0.9345871857215166   0.3326507278048768   0.5304321245   T   T   T
0.1357061581612750   0.3345995607818795   0.5307732166   T   T   T
0.3328664589218182   0.3375208554236634   0.5316740199   T   T   T
0.5289069058912199   0.3349408677705522   0.5303865119   T   T   T
0.7310121096432268   0.3339388134723911   0.5305121410   T   T   T
0.9335093846568339   0.5324565242139492   0.5306854474   T   T   T
0.1311979499781294   0.5336965816024289   0.5284600446   T   T   T
0.3364913505585138   0.5293971060743393   0.5297272108   T   T   T
0.5355212951516793   0.5340973880966031   0.5287183846   T   T   T
0.7348778542977176   0.5324403182323387   0.5305882945   T   T   T
0.9333660493285985   0.7337142321821685   0.5303850807   T   T   T
0.1344764273137711   0.7320549886434006   0.5296149549   T   T   T
0.3346724666360126   0.7310416971555721   0.5300599349   T   T   T
0.5342758416088540   0.7330076457415721   0.5304943799   T   T   T
0.7343094856487958   0.7324168516958915   0.5308743889   T   T   T
0.9336573719419063   0.9337741737493902   0.5303639318   T   T   T
0.1342029739976083   0.9324760508733373   0.5302215873   T   T   T
0.3337342610262682   0.9327004805180877   0.5302891395   T   T   T
0.5343569057841323   0.9314751881390030   0.5304596889   T   T   T
0.7348443277686177   0.9322149492044383   0.5305543780   T   T   T
0.0005311784507591   0.0002878593584219   0.6033093984   T   T   T
0.2016911244117082   -0.0003800361611944   0.6032970740   T   T   T
0.4020627145370920   -0.0017199055743763   0.6033221639   T   T   T
0.6005731207693292   0.0010034223792507   0.6033539708   T   T   T
0.7993193405468206   0.0008383973487835   0.6036025333   T   T   T
0.0011324002722464   0.1999510882624319   0.6032526176   T   T   T
0.2040172991337921   0.2003819349403286   0.6032909444   T   T   T
0.4046346599114041   0.2001530049839824   0.5990371692   T   T   T
0.5934378045637617   0.2056889318669790   0.6010464324   T   T   T
0.7977491336347182   0.2012904068554971   0.6035768754   T   T   T
0.0047110976012937   0.3995018532367711   0.6039705316   T   T   T
0.2134336238209461   0.3987822783209382   0.6078000390   T   T   T
0.3957594066077266   0.4027202557985728   0.5952078294   T   T   T
0.5904074284759840   0.3999431096528691   0.6021438084   T   T   T
0.7998672046633535   0.3991796691499820   0.6036879216   T   T   T
0.0056440988599154   0.5972714090374140   0.6026637098   T   T   T
0.2062304112025497   0.5963928275451653   0.5987571753   T   T   T
0.4012021239105682   0.5924872377340302   0.6010109479   T   T   T
0.5996722085271827   0.5966226769421306   0.6033584677   T   T   T
0.8018912157420203   0.5981227911865659   0.6046320485   T   T   T
0.0013882735788511   0.7995907894701922   0.6033945335   T   T   T
0.2020257362440425   0.7979495932877112   0.6033805914   T   T   T
0.4014873877872487   0.7970396322640745   0.6034849229   T   T   T
0.6018161228371094   0.7977658948837472   0.6045711169   T   T   T
0.8022693176894113   0.7982822269312945   0.6045694352   T   T   T
0.3665628628763118   0.4008272111632843   0.6581609659   T   T   T
0.2560536794498014   0.4066487686443501   0.6650441972   T   T   T
0.3579758142490457   0.4699968207408435   0.6758649944   T   T   T
0.2577333808592003   0.3623725313318799   0.6882564570   T   T   T
0.4246382098651549   0.3270719745113694   0.6741136264   T   T   T
 
  0.00000000E+00  0.00000000E+00  0.00000000E+00
  0.00000000E+00  0.00000000E+00  0.00000000E+00
  0.00000000E+00  0.00000000E+00  0.00000000E+00
  0.00000000E+00  0.00000000E+00  0.00000000E+00
  0.00000000E+00  0.00000000E+00  0.00000000E+00
  0.00000000E+00  0.00000000E+00  0.00000000E+00
  0.00000000E+00  0.00000000E+00  0.00000000E+00
  0.00000000E+00  0.00000000E+00  0.00000000E+00
  0.00000000E+00  0.00000000E+00  0.00000000E+00
  0.00000000E+00  0.00000000E+00  0.00000000E+00
  0.00000000E+00  0.00000000E+00  0.00000000E+00
  0.00000000E+00  0.00000000E+00  0.00000000E+00
  0.00000000E+00  0.00000000E+00  0.00000000E+00
  0.00000000E+00  0.00000000E+00  0.00000000E+00
  0.00000000E+00  0.00000000E+00  0.00000000E+00
  0.00000000E+00  0.00000000E+00  0.00000000E+00
  0.00000000E+00  0.00000000E+00  0.00000000E+00
  0.00000000E+00  0.00000000E+00  0.00000000E+00
  0.00000000E+00  0.00000000E+00  0.00000000E+00
  0.00000000E+00  0.00000000E+00  0.00000000E+00
  0.00000000E+00  0.00000000E+00  0.00000000E+00
  0.00000000E+00  0.00000000E+00  0.00000000E+00
  0.00000000E+00  0.00000000E+00  0.00000000E+00
  0.00000000E+00  0.00000000E+00  0.00000000E+00
  0.00000000E+00  0.00000000E+00  0.00000000E+00
  0.00000000E+00  0.00000000E+00  0.00000000E+00
  0.00000000E+00  0.00000000E+00  0.00000000E+00
  0.00000000E+00  0.00000000E+00  0.00000000E+00
  0.00000000E+00  0.00000000E+00  0.00000000E+00
  0.00000000E+00  0.00000000E+00  0.00000000E+00
  0.00000000E+00  0.00000000E+00  0.00000000E+00
  0.00000000E+00  0.00000000E+00  0.00000000E+00
  0.00000000E+00  0.00000000E+00  0.00000000E+00
  0.00000000E+00  0.00000000E+00  0.00000000E+00
  0.00000000E+00  0.00000000E+00  0.00000000E+00
  0.00000000E+00  0.00000000E+00  0.00000000E+00
  0.00000000E+00  0.00000000E+00  0.00000000E+00
  0.00000000E+00  0.00000000E+00  0.00000000E+00
  0.00000000E+00  0.00000000E+00  0.00000000E+00
  0.00000000E+00  0.00000000E+00  0.00000000E+00
  0.00000000E+00  0.00000000E+00  0.00000000E+00
  0.00000000E+00  0.00000000E+00  0.00000000E+00
  0.00000000E+00  0.00000000E+00  0.00000000E+00
  0.00000000E+00  0.00000000E+00  0.00000000E+00
  0.00000000E+00  0.00000000E+00  0.00000000E+00
  0.00000000E+00  0.00000000E+00  0.00000000E+00
  0.00000000E+00  0.00000000E+00  0.00000000E+00
  0.00000000E+00  0.00000000E+00  0.00000000E+00
  0.00000000E+00  0.00000000E+00  0.00000000E+00
  0.00000000E+00  0.00000000E+00  0.00000000E+00
  0.00000000E+00  0.00000000E+00  0.00000000E+00
  0.00000000E+00  0.00000000E+00  0.00000000E+00
  0.00000000E+00  0.00000000E+00  0.00000000E+00
  0.00000000E+00  0.00000000E+00  0.00000000E+00
  0.00000000E+00  0.00000000E+00  0.00000000E+00
  0.00000000E+00  0.00000000E+00  0.00000000E+00
  0.00000000E+00  0.00000000E+00  0.00000000E+00
  0.00000000E+00  0.00000000E+00  0.00000000E+00
  0.00000000E+00  0.00000000E+00  0.00000000E+00
  0.00000000E+00  0.00000000E+00  0.00000000E+00
  0.00000000E+00  0.00000000E+00  0.00000000E+00
  0.00000000E+00  0.00000000E+00  0.00000000E+00
  0.00000000E+00  0.00000000E+00  0.00000000E+00
  0.00000000E+00  0.00000000E+00  0.00000000E+00
  0.00000000E+00  0.00000000E+00  0.00000000E+00
  0.00000000E+00  0.00000000E+00  0.00000000E+00
  0.00000000E+00  0.00000000E+00  0.00000000E+00
  0.00000000E+00  0.00000000E+00  0.00000000E+00
  0.00000000E+00  0.00000000E+00  0.00000000E+00
  0.00000000E+00  0.00000000E+00  0.00000000E+00
  0.00000000E+00  0.00000000E+00  0.00000000E+00
  0.00000000E+00  0.00000000E+00  0.00000000E+00
  0.00000000E+00  0.00000000E+00  0.00000000E+00
  0.00000000E+00  0.00000000E+00  0.00000000E+00
  0.00000000E+00  0.00000000E+00  0.00000000E+00
  0.00000000E+00  0.00000000E+00  0.00000000E+00
  0.00000000E+00  0.00000000E+00  0.00000000E+00
  0.00000000E+00  0.00000000E+00  0.00000000E+00
  0.00000000E+00  0.00000000E+00  0.00000000E+00
  0.00000000E+00  0.00000000E+00  0.00000000E+00
  0.00000000E+00  0.00000000E+00  0.00000000E+00
  0.00000000E+00  0.00000000E+00  0.00000000E+00
  0.00000000E+00  0.00000000E+00  0.00000000E+00
  0.00000000E+00  0.00000000E+00  0.00000000E+00
  0.00000000E+00  0.00000000E+00  0.00000000E+00
  0.00000000E+00  0.00000000E+00  0.00000000E+00
  0.00000000E+00  0.00000000E+00  0.00000000E+00
  0.00000000E+00  0.00000000E+00  0.00000000E+00
  0.00000000E+00  0.00000000E+00  0.00000000E+00
  0.00000000E+00  0.00000000E+00  0.00000000E+00
  0.00000000E+00  0.00000000E+00  0.00000000E+00
  0.00000000E+00  0.00000000E+00  0.00000000E+00
  0.00000000E+00  0.00000000E+00  0.00000000E+00
  0.00000000E+00  0.00000000E+00  0.00000000E+00
  0.00000000E+00  0.00000000E+00  0.00000000E+00
  0.00000000E+00  0.00000000E+00  0.00000000E+00
  0.00000000E+00  0.00000000E+00  0.00000000E+00
  0.00000000E+00  0.00000000E+00  0.00000000E+00
  0.00000000E+00  0.00000000E+00  0.00000000E+00
  0.00000000E+00  0.00000000E+00  0.00000000E+00
  0.00000000E+00  0.00000000E+00  0.00000000E+00
  0.00000000E+00  0.00000000E+00  0.00000000E+00
  0.00000000E+00  0.00000000E+00  0.00000000E+00
  0.00000000E+00  0.00000000E+00  0.00000000E+00
  0.00000000E+00  0.00000000E+00  0.00000000E+00
  0.00000000E+00  0.00000000E+00  0.00000000E+00
  0.00000000E+00  0.00000000E+00  0.00000000E+00
  0.00000000E+00  0.00000000E+00  0.00000000E+00
  0.00000000E+00  0.00000000E+00  0.00000000E+00
  0.00000000E+00  0.00000000E+00  0.00000000E+00
  0.00000000E+00  0.00000000E+00  0.00000000E+00
  0.00000000E+00  0.00000000E+00  0.00000000E+00
  0.00000000E+00  0.00000000E+00  0.00000000E+00
  0.00000000E+00  0.00000000E+00  0.00000000E+00
  0.00000000E+00  0.00000000E+00  0.00000000E+00
  0.00000000E+00  0.00000000E+00  0.00000000E+00
  0.00000000E+00  0.00000000E+00  0.00000000E+00
  0.00000000E+00  0.00000000E+00  0.00000000E+00
  0.00000000E+00  0.00000000E+00  0.00000000E+00
  0.00000000E+00  0.00000000E+00  0.00000000E+00
  0.00000000E+00  0.00000000E+00  0.00000000E+00
  0.00000000E+00  0.00000000E+00  0.00000000E+00
  0.00000000E+00  0.00000000E+00  0.00000000E+00
  0.00000000E+00  0.00000000E+00  0.00000000E+00
  0.00000000E+00  0.00000000E+00  0.00000000E+00
  0.00000000E+00  0.00000000E+00  0.00000000E+00
  0.00000000E+00  0.00000000E+00  0.00000000E+00
  0.00000000E+00  0.00000000E+00  0.00000000E+00
  0.00000000E+00  0.00000000E+00  0.00000000E+00
  0.00000000E+00  0.00000000E+00  0.00000000E+00
