Al  C  O  H                             
   1.00000000000000     
    14.3189123190275875    0.0000000000000000    0.0000000000000000
     7.1594561595137938   12.4005418228398376    0.0000000000000000
   0.0000000000   0.0000000000   33.2126356907
   Al   C    O    H 
   125     1     1     2
Selective dynamics
Direct
0.9333333333333300   0.1333333333333329   0.3010902264   F   F   F
0.1333333333333329   0.1333333333333329   0.3010902264   F   F   F
0.3333333333333357   0.1333333333333329   0.3010902264   F   F   F
0.5333333333333314   0.1333333333333329   0.3010902264   F   F   F
0.7333333333333343   0.1333333333333329   0.3010902264   F   F   F
0.9333333333333300   0.3333333333333357   0.3010902264   F   F   F
0.1333333333333329   0.3333333333333357   0.3010902264   F   F   F
0.3333333333333357   0.3333333333333357   0.3010902264   F   F   F
0.5333333333333314   0.3333333333333357   0.3010902264   F   F   F
0.7333333333333343   0.3333333333333357   0.3010902264   F   F   F
0.9333333333333300   0.5333333333333314   0.3010902264   F   F   F
0.1333333333333329   0.5333333333333314   0.3010902264   F   F   F
0.3333333333333357   0.5333333333333314   0.3010902264   F   F   F
0.5333333333333314   0.5333333333333314   0.3010902264   F   F   F
0.7333333333333343   0.5333333333333314   0.3010902264   F   F   F
0.9333333333333300   0.7333333333333343   0.3010902264   F   F   F
0.1333333333333329   0.7333333333333343   0.3010902264   F   F   F
0.3333333333333357   0.7333333333333343   0.3010902264   F   F   F
0.5333333333333314   0.7333333333333343   0.3010902264   F   F   F
0.7333333333333343   0.7333333333333343   0.3010902264   F   F   F
0.9333333333333300   0.9333333333333371   0.3010902264   F   F   F
0.1333333333333329   0.9333333333333371   0.3010902264   F   F   F
0.3333333333333357   0.9333333333333371   0.3010902264   F   F   F
0.5333333333333314   0.9333333333333371   0.3010902264   F   F   F
0.7333333333333343   0.9333333333333371   0.3010902264   F   F   F
0.0000000000000000   0.0000000000000000   0.3714932084   F   F   F
0.2000000000000028   0.0000000000000000   0.3714932084   F   F   F
0.3999999999999986   0.0000000000000000   0.3714932084   F   F   F
0.6000000000000014   0.0000000000000000   0.3714932084   F   F   F
0.7999999999999972   0.0000000000000000   0.3714932084   F   F   F
0.0000000000000000   0.2000000000000028   0.3714932084   F   F   F
0.2000000000000028   0.2000000000000028   0.3714932084   F   F   F
0.3999999999999986   0.2000000000000028   0.3714932084   F   F   F
0.6000000000000014   0.2000000000000028   0.3714932084   F   F   F
0.7999999999999972   0.2000000000000028   0.3714932084   F   F   F
0.0000000000000000   0.3999999999999986   0.3714932084   F   F   F
0.2000000000000028   0.3999999999999986   0.3714932084   F   F   F
0.3999999999999986   0.3999999999999986   0.3714932084   F   F   F
0.6000000000000014   0.3999999999999986   0.3714932084   F   F   F
0.7999999999999972   0.3999999999999986   0.3714932084   F   F   F
0.0000000000000000   0.6000000000000014   0.3714932084   F   F   F
0.2000000000000028   0.6000000000000014   0.3714932084   F   F   F
0.3999999999999986   0.6000000000000014   0.3714932084   F   F   F
0.6000000000000014   0.6000000000000014   0.3714932084   F   F   F
0.7999999999999972   0.6000000000000014   0.3714932084   F   F   F
0.0000000000000000   0.7999999999999972   0.3714932084   F   F   F
0.2000000000000028   0.7999999999999972   0.3714932084   F   F   F
0.3999999999999986   0.7999999999999972   0.3714932084   F   F   F
0.6000000000000014   0.7999999999999972   0.3714932084   F   F   F
0.7999999999999972   0.7999999999999972   0.3714932084   F   F   F
0.0666666666666700   0.0666666666666700   0.4418961903   F   F   F
0.2666666666666657   0.0666666666666700   0.4418961903   F   F   F
0.4666666666666686   0.0666666666666700   0.4418961903   F   F   F
0.6666666666666643   0.0666666666666700   0.4418961903   F   F   F
0.8666666666666671   0.0666666666666700   0.4418961903   F   F   F
0.0666666666666700   0.2666666666666657   0.4418961903   F   F   F
0.2666666666666657   0.2666666666666657   0.4418961903   F   F   F
0.4666666666666686   0.2666666666666657   0.4418961903   F   F   F
0.6666666666666643   0.2666666666666657   0.4418961903   F   F   F
0.8666666666666671   0.2666666666666657   0.4418961903   F   F   F
0.0666666666666700   0.4666666666666686   0.4418961903   F   F   F
0.2666666666666657   0.4666666666666686   0.4418961903   F   F   F
0.4666666666666686   0.4666666666666686   0.4418961903   F   F   F
0.6666666666666643   0.4666666666666686   0.4418961903   F   F   F
0.8666666666666671   0.4666666666666686   0.4418961903   F   F   F
0.0666666666666700   0.6666666666666643   0.4418961903   F   F   F
0.2666666666666657   0.6666666666666643   0.4418961903   F   F   F
0.4666666666666686   0.6666666666666643   0.4418961903   F   F   F
0.6666666666666643   0.6666666666666643   0.4418961903   F   F   F
0.8666666666666671   0.6666666666666643   0.4418961903   F   F   F
0.0666666666666700   0.8666666666666671   0.4418961903   F   F   F
0.2666666666666657   0.8666666666666671   0.4418961903   F   F   F
0.4666666666666686   0.8666666666666671   0.4418961903   F   F   F
0.6666666666666643   0.8666666666666671   0.4418961903   F   F   F
0.8666666666666671   0.8666666666666671   0.4418961903   F   F   F
0.9336137937972411   0.1330368030626060   0.5122500432   T   T   T
0.1332953737140657   0.1329761723677066   0.5122409647   T   T   T
0.3333558107352509   0.1329215140529686   0.5121969542   T   T   T
0.5340069604790358   0.1319248767722602   0.5118912260   T   T   T
0.7336678073876127   0.1328475921296731   0.5121831518   T   T   T
0.9331373248353332   0.3334954173901081   0.5121995346   T   T   T
0.1332572381478317   0.3328195810195808   0.5122295606   T   T   T
0.3332804526623744   0.3332996786639653   0.5124502132   T   T   T
0.5330880260339487   0.3334742060720451   0.5126596480   T   T   T
0.7336675216783971   0.3327816333899467   0.5123346911   T   T   T
0.9336566339966650   0.5327712084850963   0.5122851269   T   T   T
0.1334467515734508   0.5327724591032498   0.5121759717   T   T   T
0.3340951051558440   0.5317914980858732   0.5125478029   T   T   T
0.5338145304013683   0.5326356725065170   0.5121993621   T   T   T
0.7333678064454745   0.5327264078185303   0.5123029508   T   T   T
0.9336753667394965   0.7329601234326903   0.5122716073   T   T   T
0.1337121841450451   0.7333100865371065   0.5121504771   T   T   T
0.3329180139189626   0.7334916294962978   0.5120689404   T   T   T
0.5333370510930426   0.7329422630487064   0.5122318453   T   T   T
0.7336376743556203   0.7326327856059082   0.5123377745   T   T   T
0.9335651010783028   0.9331612376618551   0.5122049690   T   T   T
0.1332420604179949   0.9334203208194306   0.5122729744   T   T   T
0.3332043957817115   0.9332212739440366   0.5121996798   T   T   T
0.5334502326443336   0.9325474289047253   0.5122261654   T   T   T
0.7339827106137027   0.9324113313996828   0.5122097838   T   T   T
-0.0003570418889283   0.0000317359130443   0.5830048476   T   T   T
0.1999685652529319   0.0000673227685889   0.5829741385   T   T   T
0.4002843567096842   -0.0007549905312417   0.5832861763   T   T   T
0.6009429370751606   -0.0020864135691865   0.5828871703   T   T   T
0.8004743601741431   -0.0011265409787565   0.5833032868   T   T   T
-0.0000944339380087   0.1997991012377282   0.5829760316   T   T   T
0.1997929431095519   0.1991128041720827   0.5830912931   T   T   T
0.4011616682083435   0.1967556384607360   0.5823413042   T   T   T
0.6020003394189725   0.1964001391290046   0.5822340775   T   T   T
0.8004836766997461   0.1992084558414944   0.5831310651   T   T   T
-0.0003381608995947   0.3995742641890189   0.5832723345   T   T   T
0.1982932242908441   0.3990091857939642   0.5828192566   T   T   T
0.4008420043455909   0.3965984532887093   0.5852871653   T   T   T
0.6013997283597199   0.3994597304686163   0.5832952685   T   T   T
0.8000810794542806   0.3995294398118142   0.5832913465   T   T   T
-0.0001444096296931   0.5992923624984225   0.5831758777   T   T   T
0.1970840178768677   0.6022488259317751   0.5820420519   T   T   T
0.4004419212557889   0.6032506489695622   0.5816977915   T   T   T
0.6007165517821360   0.5994010614288087   0.5831745441   T   T   T
0.8003221121979818   0.5991428801914795   0.5832781562   T   T   T
-0.0003383649929899   0.8003857072651811   0.5832553563   T   T   T
0.1994114381288385   0.8009410888617362   0.5830302016   T   T   T
0.3997782047429991   0.8007884039235433   0.5832336292   T   T   T
0.6002123862153994   0.7989818411897968   0.5831590576   T   T   T
0.8007050299169574   0.7988298929654486   0.5831641494   T   T   T
0.3919444569310646   0.4279122736127675   0.6433808833   T   T   T
0.4323986803256532   0.3495599226966844   0.6719935898   T   T   T
0.4197807856283268   0.3798962841686171   0.6989097736   T   T   T
0.3523760532556731   0.5094406909497980   0.6561209301   T   T   T
 
  0.00000000E+00  0.00000000E+00  0.00000000E+00
  0.00000000E+00  0.00000000E+00  0.00000000E+00
  0.00000000E+00  0.00000000E+00  0.00000000E+00
  0.00000000E+00  0.00000000E+00  0.00000000E+00
  0.00000000E+00  0.00000000E+00  0.00000000E+00
  0.00000000E+00  0.00000000E+00  0.00000000E+00
  0.00000000E+00  0.00000000E+00  0.00000000E+00
  0.00000000E+00  0.00000000E+00  0.00000000E+00
  0.00000000E+00  0.00000000E+00  0.00000000E+00
  0.00000000E+00  0.00000000E+00  0.00000000E+00
  0.00000000E+00  0.00000000E+00  0.00000000E+00
  0.00000000E+00  0.00000000E+00  0.00000000E+00
  0.00000000E+00  0.00000000E+00  0.00000000E+00
  0.00000000E+00  0.00000000E+00  0.00000000E+00
  0.00000000E+00  0.00000000E+00  0.00000000E+00
  0.00000000E+00  0.00000000E+00  0.00000000E+00
  0.00000000E+00  0.00000000E+00  0.00000000E+00
  0.00000000E+00  0.00000000E+00  0.00000000E+00
  0.00000000E+00  0.00000000E+00  0.00000000E+00
  0.00000000E+00  0.00000000E+00  0.00000000E+00
  0.00000000E+00  0.00000000E+00  0.00000000E+00
  0.00000000E+00  0.00000000E+00  0.00000000E+00
  0.00000000E+00  0.00000000E+00  0.00000000E+00
  0.00000000E+00  0.00000000E+00  0.00000000E+00
  0.00000000E+00  0.00000000E+00  0.00000000E+00
  0.00000000E+00  0.00000000E+00  0.00000000E+00
  0.00000000E+00  0.00000000E+00  0.00000000E+00
  0.00000000E+00  0.00000000E+00  0.00000000E+00
  0.00000000E+00  0.00000000E+00  0.00000000E+00
  0.00000000E+00  0.00000000E+00  0.00000000E+00
  0.00000000E+00  0.00000000E+00  0.00000000E+00
  0.00000000E+00  0.00000000E+00  0.00000000E+00
  0.00000000E+00  0.00000000E+00  0.00000000E+00
  0.00000000E+00  0.00000000E+00  0.00000000E+00
  0.00000000E+00  0.00000000E+00  0.00000000E+00
  0.00000000E+00  0.00000000E+00  0.00000000E+00
  0.00000000E+00  0.00000000E+00  0.00000000E+00
  0.00000000E+00  0.00000000E+00  0.00000000E+00
  0.00000000E+00  0.00000000E+00  0.00000000E+00
  0.00000000E+00  0.00000000E+00  0.00000000E+00
  0.00000000E+00  0.00000000E+00  0.00000000E+00
  0.00000000E+00  0.00000000E+00  0.00000000E+00
  0.00000000E+00  0.00000000E+00  0.00000000E+00
  0.00000000E+00  0.00000000E+00  0.00000000E+00
  0.00000000E+00  0.00000000E+00  0.00000000E+00
  0.00000000E+00  0.00000000E+00  0.00000000E+00
  0.00000000E+00  0.00000000E+00  0.00000000E+00
  0.00000000E+00  0.00000000E+00  0.00000000E+00
  0.00000000E+00  0.00000000E+00  0.00000000E+00
  0.00000000E+00  0.00000000E+00  0.00000000E+00
  0.00000000E+00  0.00000000E+00  0.00000000E+00
  0.00000000E+00  0.00000000E+00  0.00000000E+00
  0.00000000E+00  0.00000000E+00  0.00000000E+00
  0.00000000E+00  0.00000000E+00  0.00000000E+00
  0.00000000E+00  0.00000000E+00  0.00000000E+00
  0.00000000E+00  0.00000000E+00  0.00000000E+00
  0.00000000E+00  0.00000000E+00  0.00000000E+00
  0.00000000E+00  0.00000000E+00  0.00000000E+00
  0.00000000E+00  0.00000000E+00  0.00000000E+00
  0.00000000E+00  0.00000000E+00  0.00000000E+00
  0.00000000E+00  0.00000000E+00  0.00000000E+00
  0.00000000E+00  0.00000000E+00  0.00000000E+00
  0.00000000E+00  0.00000000E+00  0.00000000E+00
  0.00000000E+00  0.00000000E+00  0.00000000E+00
  0.00000000E+00  0.00000000E+00  0.00000000E+00
  0.00000000E+00  0.00000000E+00  0.00000000E+00
  0.00000000E+00  0.00000000E+00  0.00000000E+00
  0.00000000E+00  0.00000000E+00  0.00000000E+00
  0.00000000E+00  0.00000000E+00  0.00000000E+00
  0.00000000E+00  0.00000000E+00  0.00000000E+00
  0.00000000E+00  0.00000000E+00  0.00000000E+00
  0.00000000E+00  0.00000000E+00  0.00000000E+00
  0.00000000E+00  0.00000000E+00  0.00000000E+00
  0.00000000E+00  0.00000000E+00  0.00000000E+00
  0.00000000E+00  0.00000000E+00  0.00000000E+00
  0.00000000E+00  0.00000000E+00  0.00000000E+00
  0.00000000E+00  0.00000000E+00  0.00000000E+00
  0.00000000E+00  0.00000000E+00  0.00000000E+00
  0.00000000E+00  0.00000000E+00  0.00000000E+00
  0.00000000E+00  0.00000000E+00  0.00000000E+00
  0.00000000E+00  0.00000000E+00  0.00000000E+00
  0.00000000E+00  0.00000000E+00  0.00000000E+00
  0.00000000E+00  0.00000000E+00  0.00000000E+00
  0.00000000E+00  0.00000000E+00  0.00000000E+00
  0.00000000E+00  0.00000000E+00  0.00000000E+00
  0.00000000E+00  0.00000000E+00  0.00000000E+00
  0.00000000E+00  0.00000000E+00  0.00000000E+00
  0.00000000E+00  0.00000000E+00  0.00000000E+00
  0.00000000E+00  0.00000000E+00  0.00000000E+00
  0.00000000E+00  0.00000000E+00  0.00000000E+00
  0.00000000E+00  0.00000000E+00  0.00000000E+00
  0.00000000E+00  0.00000000E+00  0.00000000E+00
  0.00000000E+00  0.00000000E+00  0.00000000E+00
  0.00000000E+00  0.00000000E+00  0.00000000E+00
  0.00000000E+00  0.00000000E+00  0.00000000E+00
  0.00000000E+00  0.00000000E+00  0.00000000E+00
  0.00000000E+00  0.00000000E+00  0.00000000E+00
  0.00000000E+00  0.00000000E+00  0.00000000E+00
  0.00000000E+00  0.00000000E+00  0.00000000E+00
  0.00000000E+00  0.00000000E+00  0.00000000E+00
  0.00000000E+00  0.00000000E+00  0.00000000E+00
  0.00000000E+00  0.00000000E+00  0.00000000E+00
  0.00000000E+00  0.00000000E+00  0.00000000E+00
  0.00000000E+00  0.00000000E+00  0.00000000E+00
  0.00000000E+00  0.00000000E+00  0.00000000E+00
  0.00000000E+00  0.00000000E+00  0.00000000E+00
  0.00000000E+00  0.00000000E+00  0.00000000E+00
  0.00000000E+00  0.00000000E+00  0.00000000E+00
  0.00000000E+00  0.00000000E+00  0.00000000E+00
  0.00000000E+00  0.00000000E+00  0.00000000E+00
  0.00000000E+00  0.00000000E+00  0.00000000E+00
  0.00000000E+00  0.00000000E+00  0.00000000E+00
  0.00000000E+00  0.00000000E+00  0.00000000E+00
  0.00000000E+00  0.00000000E+00  0.00000000E+00
  0.00000000E+00  0.00000000E+00  0.00000000E+00
  0.00000000E+00  0.00000000E+00  0.00000000E+00
  0.00000000E+00  0.00000000E+00  0.00000000E+00
  0.00000000E+00  0.00000000E+00  0.00000000E+00
  0.00000000E+00  0.00000000E+00  0.00000000E+00
  0.00000000E+00  0.00000000E+00  0.00000000E+00
  0.00000000E+00  0.00000000E+00  0.00000000E+00
  0.00000000E+00  0.00000000E+00  0.00000000E+00
  0.00000000E+00  0.00000000E+00  0.00000000E+00
  0.00000000E+00  0.00000000E+00  0.00000000E+00
  0.00000000E+00  0.00000000E+00  0.00000000E+00
  0.00000000E+00  0.00000000E+00  0.00000000E+00
  0.00000000E+00  0.00000000E+00  0.00000000E+00
  0.00000000E+00  0.00000000E+00  0.00000000E+00
  0.00000000E+00  0.00000000E+00  0.00000000E+00
