Al                                      
   1.00000000000000     
    14.3189123190275875    0.0000000000000000    0.0000000000000000
     7.1594561595137938   12.4005418228398376    0.0000000000000000
   0.0000000000   0.0000000000   29.3760616010
   Al
   125
Selective dynamics
Direct
0.9333333333333300   0.1333333333333329   0.3404132295   F   F   F
0.1333333333333329   0.1333333333333329   0.3404132295   F   F   F
0.3333333333333357   0.1333333333333329   0.3404132295   F   F   F
0.5333333333333314   0.1333333333333329   0.3404132295   F   F   F
0.7333333333333343   0.1333333333333329   0.3404132295   F   F   F
0.9333333333333300   0.3333333333333357   0.3404132295   F   F   F
0.1333333333333329   0.3333333333333357   0.3404132295   F   F   F
0.3333333333333357   0.3333333333333357   0.3404132295   F   F   F
0.5333333333333314   0.3333333333333357   0.3404132295   F   F   F
0.7333333333333343   0.3333333333333357   0.3404132295   F   F   F
0.9333333333333300   0.5333333333333314   0.3404132295   F   F   F
0.1333333333333329   0.5333333333333314   0.3404132295   F   F   F
0.3333333333333357   0.5333333333333314   0.3404132295   F   F   F
0.5333333333333314   0.5333333333333314   0.3404132295   F   F   F
0.7333333333333343   0.5333333333333314   0.3404132295   F   F   F
0.9333333333333300   0.7333333333333343   0.3404132295   F   F   F
0.1333333333333329   0.7333333333333343   0.3404132295   F   F   F
0.3333333333333357   0.7333333333333343   0.3404132295   F   F   F
0.5333333333333314   0.7333333333333343   0.3404132295   F   F   F
0.7333333333333343   0.7333333333333343   0.3404132295   F   F   F
0.9333333333333300   0.9333333333333371   0.3404132295   F   F   F
0.1333333333333329   0.9333333333333371   0.3404132295   F   F   F
0.3333333333333357   0.9333333333333371   0.3404132295   F   F   F
0.5333333333333314   0.9333333333333371   0.3404132295   F   F   F
0.7333333333333343   0.9333333333333371   0.3404132295   F   F   F
0.0000000000000000   0.0000000000000000   0.4200109858   F   F   F
0.2000000000000028   0.0000000000000000   0.4200109858   F   F   F
0.3999999999999986   0.0000000000000000   0.4200109858   F   F   F
0.6000000000000014   0.0000000000000000   0.4200109858   F   F   F
0.7999999999999972   0.0000000000000000   0.4200109858   F   F   F
0.0000000000000000   0.2000000000000028   0.4200109858   F   F   F
0.2000000000000028   0.2000000000000028   0.4200109858   F   F   F
0.3999999999999986   0.2000000000000028   0.4200109858   F   F   F
0.6000000000000014   0.2000000000000028   0.4200109858   F   F   F
0.7999999999999972   0.2000000000000028   0.4200109858   F   F   F
0.0000000000000000   0.3999999999999986   0.4200109858   F   F   F
0.2000000000000028   0.3999999999999986   0.4200109858   F   F   F
0.3999999999999986   0.3999999999999986   0.4200109858   F   F   F
0.6000000000000014   0.3999999999999986   0.4200109858   F   F   F
0.7999999999999972   0.3999999999999986   0.4200109858   F   F   F
0.0000000000000000   0.6000000000000014   0.4200109858   F   F   F
0.2000000000000028   0.6000000000000014   0.4200109858   F   F   F
0.3999999999999986   0.6000000000000014   0.4200109858   F   F   F
0.6000000000000014   0.6000000000000014   0.4200109858   F   F   F
0.7999999999999972   0.6000000000000014   0.4200109858   F   F   F
0.0000000000000000   0.7999999999999972   0.4200109858   F   F   F
0.2000000000000028   0.7999999999999972   0.4200109858   F   F   F
0.3999999999999986   0.7999999999999972   0.4200109858   F   F   F
0.6000000000000014   0.7999999999999972   0.4200109858   F   F   F
0.7999999999999972   0.7999999999999972   0.4200109858   F   F   F
0.0666666666666700   0.0666666666666700   0.4996087420   F   F   F
0.2666666666666657   0.0666666666666700   0.4996087420   F   F   F
0.4666666666666686   0.0666666666666700   0.4996087420   F   F   F
0.6666666666666643   0.0666666666666700   0.4996087420   F   F   F
0.8666666666666671   0.0666666666666700   0.4996087420   F   F   F
0.0666666666666700   0.2666666666666657   0.4996087420   F   F   F
0.2666666666666657   0.2666666666666657   0.4996087420   F   F   F
0.4666666666666686   0.2666666666666657   0.4996087420   F   F   F
0.6666666666666643   0.2666666666666657   0.4996087420   F   F   F
0.8666666666666671   0.2666666666666657   0.4996087420   F   F   F
0.0666666666666700   0.4666666666666686   0.4996087420   F   F   F
0.2666666666666657   0.4666666666666686   0.4996087420   F   F   F
0.4666666666666686   0.4666666666666686   0.4996087420   F   F   F
0.6666666666666643   0.4666666666666686   0.4996087420   F   F   F
0.8666666666666671   0.4666666666666686   0.4996087420   F   F   F
0.0666666666666700   0.6666666666666643   0.4996087420   F   F   F
0.2666666666666657   0.6666666666666643   0.4996087420   F   F   F
0.4666666666666686   0.6666666666666643   0.4996087420   F   F   F
0.6666666666666643   0.6666666666666643   0.4996087420   F   F   F
0.8666666666666671   0.6666666666666643   0.4996087420   F   F   F
0.0666666666666700   0.8666666666666671   0.4996087420   F   F   F
0.2666666666666657   0.8666666666666671   0.4996087420   F   F   F
0.4666666666666686   0.8666666666666671   0.4996087420   F   F   F
0.6666666666666643   0.8666666666666671   0.4996087420   F   F   F
0.8666666666666671   0.8666666666666671   0.4996087420   F   F   F
0.9333333333333300   0.1333333333333329   0.5793028661   T   T   T
0.1333333333333329   0.1333333333333329   0.5793028661   T   T   T
0.3333333333333357   0.1333333333333329   0.5793028661   T   T   T
0.5333333333333314   0.1333333333333329   0.5793028661   T   T   T
0.7333333333333343   0.1333333333333329   0.5793028661   T   T   T
0.9333333333333300   0.3333333333333357   0.5793028661   T   T   T
0.1333333333333329   0.3333333333333357   0.5793028661   T   T   T
0.3333333333333357   0.3333333333333357   0.5793028661   T   T   T
0.5333333333333314   0.3333333333333357   0.5793028661   T   T   T
0.7333333333333343   0.3333333333333357   0.5793028661   T   T   T
0.9333333333333300   0.5333333333333314   0.5793028661   T   T   T
0.1333333333333329   0.5333333333333314   0.5793028661   T   T   T
0.3333333333333357   0.5333333333333314   0.5793028661   T   T   T
0.5333333333333314   0.5333333333333314   0.5793028661   T   T   T
0.7333333333333343   0.5333333333333314   0.5793028661   T   T   T
0.9333333333333300   0.7333333333333343   0.5793028661   T   T   T
0.1333333333333329   0.7333333333333343   0.5793028661   T   T   T
0.3333333333333357   0.7333333333333343   0.5793028661   T   T   T
0.5333333333333314   0.7333333333333343   0.5793028661   T   T   T
0.7333333333333343   0.7333333333333343   0.5793028661   T   T   T
0.9333333333333300   0.9333333333333371   0.5793028661   T   T   T
0.1333333333333329   0.9333333333333371   0.5793028661   T   T   T
0.3333333333333357   0.9333333333333371   0.5793028661   T   T   T
0.5333333333333314   0.9333333333333371   0.5793028661   T   T   T
0.7333333333333343   0.9333333333333371   0.5793028661   T   T   T
0.0000000000000000   0.0000000000000000   0.6595867705   T   T   T
0.2000000000000028   0.0000000000000000   0.6595867705   T   T   T
0.3999999999999986   -0.0000000000000000   0.6595867705   T   T   T
0.6000000000000014   -0.0000000000000000   0.6595867705   T   T   T
0.7999999999999972   -0.0000000000000000   0.6595867705   T   T   T
0.0000000000000000   0.2000000000000028   0.6595867705   T   T   T
0.2000000000000028   0.2000000000000028   0.6595867705   T   T   T
0.3999999999999986   0.2000000000000028   0.6595867705   T   T   T
0.6000000000000014   0.2000000000000028   0.6595867705   T   T   T
0.7999999999999972   0.2000000000000028   0.6595867705   T   T   T
0.0000000000000000   0.3999999999999986   0.6595867705   T   T   T
0.2000000000000028   0.3999999999999986   0.6595867705   T   T   T
0.3999999999999986   0.3999999999999986   0.6595867705   T   T   T
0.6000000000000014   0.3999999999999986   0.6595867705   T   T   T
0.7999999999999972   0.3999999999999986   0.6595867705   T   T   T
0.0000000000000000   0.6000000000000014   0.6595867705   T   T   T
0.2000000000000028   0.6000000000000014   0.6595867705   T   T   T
0.3999999999999986   0.6000000000000014   0.6595867705   T   T   T
0.6000000000000014   0.6000000000000014   0.6595867705   T   T   T
0.7999999999999972   0.6000000000000014   0.6595867705   T   T   T
-0.0000000000000000   0.7999999999999972   0.6595867705   T   T   T
0.2000000000000028   0.7999999999999972   0.6595867705   T   T   T
0.3999999999999986   0.7999999999999972   0.6595867705   T   T   T
0.6000000000000014   0.7999999999999972   0.6595867705   T   T   T
0.7999999999999972   0.7999999999999972   0.6595867705   T   T   T
 
  0.00000000E+00  0.00000000E+00  0.00000000E+00
  0.00000000E+00  0.00000000E+00  0.00000000E+00
  0.00000000E+00  0.00000000E+00  0.00000000E+00
  0.00000000E+00  0.00000000E+00  0.00000000E+00
  0.00000000E+00  0.00000000E+00  0.00000000E+00
  0.00000000E+00  0.00000000E+00  0.00000000E+00
  0.00000000E+00  0.00000000E+00  0.00000000E+00
  0.00000000E+00  0.00000000E+00  0.00000000E+00
  0.00000000E+00  0.00000000E+00  0.00000000E+00
  0.00000000E+00  0.00000000E+00  0.00000000E+00
  0.00000000E+00  0.00000000E+00  0.00000000E+00
  0.00000000E+00  0.00000000E+00  0.00000000E+00
  0.00000000E+00  0.00000000E+00  0.00000000E+00
  0.00000000E+00  0.00000000E+00  0.00000000E+00
  0.00000000E+00  0.00000000E+00  0.00000000E+00
  0.00000000E+00  0.00000000E+00  0.00000000E+00
  0.00000000E+00  0.00000000E+00  0.00000000E+00
  0.00000000E+00  0.00000000E+00  0.00000000E+00
  0.00000000E+00  0.00000000E+00  0.00000000E+00
  0.00000000E+00  0.00000000E+00  0.00000000E+00
  0.00000000E+00  0.00000000E+00  0.00000000E+00
  0.00000000E+00  0.00000000E+00  0.00000000E+00
  0.00000000E+00  0.00000000E+00  0.00000000E+00
  0.00000000E+00  0.00000000E+00  0.00000000E+00
  0.00000000E+00  0.00000000E+00  0.00000000E+00
  0.00000000E+00  0.00000000E+00  0.00000000E+00
  0.00000000E+00  0.00000000E+00  0.00000000E+00
  0.00000000E+00  0.00000000E+00  0.00000000E+00
  0.00000000E+00  0.00000000E+00  0.00000000E+00
  0.00000000E+00  0.00000000E+00  0.00000000E+00
  0.00000000E+00  0.00000000E+00  0.00000000E+00
  0.00000000E+00  0.00000000E+00  0.00000000E+00
  0.00000000E+00  0.00000000E+00  0.00000000E+00
  0.00000000E+00  0.00000000E+00  0.00000000E+00
  0.00000000E+00  0.00000000E+00  0.00000000E+00
  0.00000000E+00  0.00000000E+00  0.00000000E+00
  0.00000000E+00  0.00000000E+00  0.00000000E+00
  0.00000000E+00  0.00000000E+00  0.00000000E+00
  0.00000000E+00  0.00000000E+00  0.00000000E+00
  0.00000000E+00  0.00000000E+00  0.00000000E+00
  0.00000000E+00  0.00000000E+00  0.00000000E+00
  0.00000000E+00  0.00000000E+00  0.00000000E+00
  0.00000000E+00  0.00000000E+00  0.00000000E+00
  0.00000000E+00  0.00000000E+00  0.00000000E+00
  0.00000000E+00  0.00000000E+00  0.00000000E+00
  0.00000000E+00  0.00000000E+00  0.00000000E+00
  0.00000000E+00  0.00000000E+00  0.00000000E+00
  0.00000000E+00  0.00000000E+00  0.00000000E+00
  0.00000000E+00  0.00000000E+00  0.00000000E+00
  0.00000000E+00  0.00000000E+00  0.00000000E+00
  0.00000000E+00  0.00000000E+00  0.00000000E+00
  0.00000000E+00  0.00000000E+00  0.00000000E+00
  0.00000000E+00  0.00000000E+00  0.00000000E+00
  0.00000000E+00  0.00000000E+00  0.00000000E+00
  0.00000000E+00  0.00000000E+00  0.00000000E+00
  0.00000000E+00  0.00000000E+00  0.00000000E+00
  0.00000000E+00  0.00000000E+00  0.00000000E+00
  0.00000000E+00  0.00000000E+00  0.00000000E+00
  0.00000000E+00  0.00000000E+00  0.00000000E+00
  0.00000000E+00  0.00000000E+00  0.00000000E+00
  0.00000000E+00  0.00000000E+00  0.00000000E+00
  0.00000000E+00  0.00000000E+00  0.00000000E+00
  0.00000000E+00  0.00000000E+00  0.00000000E+00
  0.00000000E+00  0.00000000E+00  0.00000000E+00
  0.00000000E+00  0.00000000E+00  0.00000000E+00
  0.00000000E+00  0.00000000E+00  0.00000000E+00
  0.00000000E+00  0.00000000E+00  0.00000000E+00
  0.00000000E+00  0.00000000E+00  0.00000000E+00
  0.00000000E+00  0.00000000E+00  0.00000000E+00
  0.00000000E+00  0.00000000E+00  0.00000000E+00
  0.00000000E+00  0.00000000E+00  0.00000000E+00
  0.00000000E+00  0.00000000E+00  0.00000000E+00
  0.00000000E+00  0.00000000E+00  0.00000000E+00
  0.00000000E+00  0.00000000E+00  0.00000000E+00
  0.00000000E+00  0.00000000E+00  0.00000000E+00
  0.00000000E+00  0.00000000E+00  0.00000000E+00
  0.00000000E+00  0.00000000E+00  0.00000000E+00
  0.00000000E+00  0.00000000E+00  0.00000000E+00
  0.00000000E+00  0.00000000E+00  0.00000000E+00
  0.00000000E+00  0.00000000E+00  0.00000000E+00
  0.00000000E+00  0.00000000E+00  0.00000000E+00
  0.00000000E+00  0.00000000E+00  0.00000000E+00
  0.00000000E+00  0.00000000E+00  0.00000000E+00
  0.00000000E+00  0.00000000E+00  0.00000000E+00
  0.00000000E+00  0.00000000E+00  0.00000000E+00
  0.00000000E+00  0.00000000E+00  0.00000000E+00
  0.00000000E+00  0.00000000E+00  0.00000000E+00
  0.00000000E+00  0.00000000E+00  0.00000000E+00
  0.00000000E+00  0.00000000E+00  0.00000000E+00
  0.00000000E+00  0.00000000E+00  0.00000000E+00
  0.00000000E+00  0.00000000E+00  0.00000000E+00
  0.00000000E+00  0.00000000E+00  0.00000000E+00
  0.00000000E+00  0.00000000E+00  0.00000000E+00
  0.00000000E+00  0.00000000E+00  0.00000000E+00
  0.00000000E+00  0.00000000E+00  0.00000000E+00
  0.00000000E+00  0.00000000E+00  0.00000000E+00
  0.00000000E+00  0.00000000E+00  0.00000000E+00
  0.00000000E+00  0.00000000E+00  0.00000000E+00
  0.00000000E+00  0.00000000E+00  0.00000000E+00
  0.00000000E+00  0.00000000E+00  0.00000000E+00
  0.00000000E+00  0.00000000E+00  0.00000000E+00
  0.00000000E+00  0.00000000E+00  0.00000000E+00
  0.00000000E+00  0.00000000E+00  0.00000000E+00
  0.00000000E+00  0.00000000E+00  0.00000000E+00
  0.00000000E+00  0.00000000E+00  0.00000000E+00
  0.00000000E+00  0.00000000E+00  0.00000000E+00
  0.00000000E+00  0.00000000E+00  0.00000000E+00
  0.00000000E+00  0.00000000E+00  0.00000000E+00
  0.00000000E+00  0.00000000E+00  0.00000000E+00
  0.00000000E+00  0.00000000E+00  0.00000000E+00
  0.00000000E+00  0.00000000E+00  0.00000000E+00
  0.00000000E+00  0.00000000E+00  0.00000000E+00
  0.00000000E+00  0.00000000E+00  0.00000000E+00
  0.00000000E+00  0.00000000E+00  0.00000000E+00
  0.00000000E+00  0.00000000E+00  0.00000000E+00
  0.00000000E+00  0.00000000E+00  0.00000000E+00
  0.00000000E+00  0.00000000E+00  0.00000000E+00
  0.00000000E+00  0.00000000E+00  0.00000000E+00
  0.00000000E+00  0.00000000E+00  0.00000000E+00
  0.00000000E+00  0.00000000E+00  0.00000000E+00
  0.00000000E+00  0.00000000E+00  0.00000000E+00
  0.00000000E+00  0.00000000E+00  0.00000000E+00
  0.00000000E+00  0.00000000E+00  0.00000000E+00
  0.00000000E+00  0.00000000E+00  0.00000000E+00
  0.00000000E+00  0.00000000E+00  0.00000000E+00
