Al Fe Al  C  H  C  H 
 1.0000000000000000
    14.3189123190275875   0.0000000000000000   0.0000000000000000
    7.1594561595137938   12.4005418228398376   0.0000000000000000
   0.0000000000   0.0000000000   33.9079098680
 Al  Fe  Al  C   H   C   H  
 112   1  12   2   4   1   3
Selective dynamics
Cartesian
14.3189123190275360   1.6534055763786395   10.0000000000   F   F   F
2.8637824638055078   1.6534055763786395   10.0000000000   F   F   F
5.7275649276110663   1.6534055763786395   10.0000000000   F   F   F
8.5913473914165230   1.6534055763786395   10.0000000000   F   F   F
11.4551298552220793   1.6534055763786395   10.0000000000   F   F   F
15.7508035509303159   4.1335139409466422   10.0000000000   F   F   F
4.2956736957082864   4.1335139409466422   10.0000000000   F   F   F
7.1594561595138444   4.1335139409466422   10.0000000000   F   F   F
10.0232386233193012   4.1335139409466422   10.0000000000   F   F   F
12.8870210871248592   4.1335139409466422   10.0000000000   F   F   F
17.1826947828330425   6.6136223055145562   10.0000000000   F   F   F
5.7275649276110148   6.6136223055145562   10.0000000000   F   F   F
8.5913473914165728   6.6136223055145562   10.0000000000   F   F   F
11.4551298552220295   6.6136223055145562   10.0000000000   F   F   F
14.3189123190275875   6.6136223055145562   10.0000000000   F   F   F
18.6145860147358206   9.0937306700825591   10.0000000000   F   F   F
7.1594561595137938   9.0937306700825591   10.0000000000   F   F   F
10.0232386233193509   9.0937306700825591   10.0000000000   F   F   F
12.8870210871248077   9.0937306700825591   10.0000000000   F   F   F
15.7508035509303657   9.0937306700825591   10.0000000000   F   F   F
20.0464772466386023   11.5738390346505629   10.0000000000   F   F   F
8.5913473914165728   11.5738390346505629   10.0000000000   F   F   F
11.4551298552221308   11.5738390346505629   10.0000000000   F   F   F
14.3189123190275875   11.5738390346505629   10.0000000000   F   F   F
17.1826947828331456   11.5738390346505629   10.0000000000   F   F   F
0.0000000000000000   0.0000000000000000   12.3382685902   F   F   F
2.8637824638055576   0.0000000000000000   12.3382685902   F   F   F
5.7275649276110148   0.0000000000000000   12.3382685902   F   F   F
8.5913473914165728   0.0000000000000000   12.3382685902   F   F   F
11.4551298552220295   0.0000000000000000   12.3382685902   F   F   F
1.4318912319027788   2.4801083645680020   12.3382685902   F   F   F
4.2956736957083361   2.4801083645680020   12.3382685902   F   F   F
7.1594561595137938   2.4801083645680020   12.3382685902   F   F   F
10.0232386233193509   2.4801083645680020   12.3382685902   F   F   F
12.8870210871248077   2.4801083645680020   12.3382685902   F   F   F
2.8637824638055074   4.9602167291359178   12.3382685902   F   F   F
5.7275649276110645   4.9602167291359178   12.3382685902   F   F   F
8.5913473914165230   4.9602167291359178   12.3382685902   F   F   F
11.4551298552220793   4.9602167291359178   12.3382685902   F   F   F
14.3189123190275360   4.9602167291359178   12.3382685902   F   F   F
4.2956736957082864   7.4403250937039198   12.3382685902   F   F   F
7.1594561595138444   7.4403250937039198   12.3382685902   F   F   F
10.0232386233193012   7.4403250937039198   12.3382685902   F   F   F
12.8870210871248592   7.4403250937039198   12.3382685902   F   F   F
15.7508035509303159   7.4403250937039198   12.3382685902   F   F   F
5.7275649276110148   9.9204334582718356   12.3382685902   F   F   F
8.5913473914165728   9.9204334582718356   12.3382685902   F   F   F
11.4551298552220295   9.9204334582718356   12.3382685902   F   F   F
14.3189123190275875   9.9204334582718356   12.3382685902   F   F   F
17.1826947828330461   9.9204334582718356   12.3382685902   F   F   F
1.4318912319028303   0.8267027881893638   14.6765371804   F   F   F
4.2956736957082864   0.8267027881893638   14.6765371804   F   F   F
7.1594561595138453   0.8267027881893638   14.6765371804   F   F   F
10.0232386233193012   0.8267027881893638   14.6765371804   F   F   F
12.8870210871248592   0.8267027881893638   14.6765371804   F   F   F
2.8637824638055585   3.3068111527572781   14.6765371804   F   F   F
5.7275649276110148   3.3068111527572781   14.6765371804   F   F   F
8.5913473914165728   3.3068111527572781   14.6765371804   F   F   F
11.4551298552220295   3.3068111527572781   14.6765371804   F   F   F
14.3189123190275875   3.3068111527572781   14.6765371804   F   F   F
4.2956736957083379   5.7869195173252814   14.6765371804   F   F   F
7.1594561595137947   5.7869195173252814   14.6765371804   F   F   F
10.0232386233193527   5.7869195173252814   14.6765371804   F   F   F
12.8870210871248094   5.7869195173252814   14.6765371804   F   F   F
15.7508035509303674   5.7869195173252814   14.6765371804   F   F   F
5.7275649276110663   8.2670278818931955   14.6765371804   F   F   F
8.5913473914165230   8.2670278818931955   14.6765371804   F   F   F
11.4551298552220810   8.2670278818931955   14.6765371804   F   F   F
14.3189123190275378   8.2670278818931955   14.6765371804   F   F   F
17.1826947828330958   8.2670278818931955   14.6765371804   F   F   F
7.1594561595138453   10.7471362464611992   14.6765371804   F   F   F
10.0232386233193012   10.7471362464611992   14.6765371804   F   F   F
12.8870210871248609   10.7471362464611992   14.6765371804   F   F   F
15.7508035509303177   10.7471362464611992   14.6765371804   F   F   F
18.6145860147358739   10.7471362464611992   14.6765371804   F   F   F
14.3103936789102200   1.6570479148258910   17.0083109181   T   T   T
2.8753276763167568   1.6580150935032141   17.0083664502   T   T   T
5.7463784335458312   1.6679251098815224   17.0064769972   T   T   T
8.5906960622826709   1.6201869218410854   16.9560497387   T   T   T
11.4371527105922155   1.6691335240925109   17.0058824024   T   T   T
15.7540754166224719   4.1276198096863901   17.0118250881   T   T   T
4.3214205114151092   4.1423763982082633   17.0088922402   T   T   T
7.2031394761749405   4.1591438525456921   17.0158181793   T   T   T
9.9749213198915889   4.1613665342644159   17.0209611606   T   T   T
12.8661772659287177   4.1402900648964538   17.0047273420   T   T   T
17.1733343083222607   6.6125513111522762   17.0174346200   T   T   T
5.6963555407672386   6.6294561384439321   16.9520010824   T   T   T
8.5955327630925460   6.5625080399654987   17.0115085240   T   T   T
11.4843728688851243   6.6292892032834070   16.9590451111   T   T   T
14.3282280722779607   6.6117019122892291   17.0182225165   T   T   T
18.6091916181737673   9.1026405405258508   17.0169986552   T   T   T
7.1633248719098681   9.0687475877786756   17.0017498498   T   T   T
10.0206847555103895   9.0646078909014403   17.0093133144   T   T   T
12.8907802381042682   9.1000512594246885   17.0189507664   T   T   T
15.7498619704074727   9.0940614487520666   17.0287553123   T   T   T
20.0512151860300740   11.5746524519660081   17.0116815546   T   T   T
8.5930792810047354   11.5597333092298200   17.0082270304   T   T   T
11.4514167818401713   11.5733050190811326   17.0119611071   T   T   T
14.3138831037385987   11.5664498735709032   17.0190570987   T   T   T
17.1873699875972363   11.5678128231997572   17.0185719057   T   T   T
7.1578619222374309   12.3963233469461134   19.3509526663   T   T   T
10.0279928411048775   12.3961926739096260   19.3516255425   T   T   T
5.7371551708169886   0.0125356158984692   19.3619696823   T   T   T
8.5909084332155157   0.0416379116368106   19.3591159075   T   T   T
11.4464237023608959   0.0127742091778192   19.3607172984   T   T   T
1.4330164156035603   2.4805487928338987   19.3510586788   T   T   T
4.3186898349351308   2.4909906432298081   19.3597741269   T   T   T
7.2089889412241019   2.5547609420885680   19.2813729387   T   T   T
9.9748668679600190   2.5531291616036449   19.2788840671   T   T   T
12.8656861635661475   2.4922973529348065   19.3590432782   T   T   T
2.8906693651943844   4.9609813248880199   19.3631081292   T   T   T
5.8315921305829370   4.9632849474453593   19.2869535782   T   T   T
8.5708345312254330   4.9747392432144419   19.1907366936   T   T   T
11.3715274414365108   4.9629220065278865   19.2783291026   T   T   T
14.3062380690882343   4.9598434292847564   19.3601487528   T   T   T
4.3290591965710510   7.4200931245529738   19.3492003292   T   T   T
7.2004275842764347   7.3542857920894988   19.2653604038   T   T   T
9.9796801300544224   7.3434613463206508   19.2937800277   T   T   T
12.8530020512292449   7.4176226856374292   19.3586282863   T   T   T
15.7514320713051248   7.4376135357290094   19.3898918562   T   T   T
5.7372730509388203   9.8972403522953947   19.3616106283   T   T   T
8.5920581323401084   9.8930730187000488   19.3550004137   T   T   T
11.4451233459019548   9.8960591438764673   19.3633919424   T   T   T
14.3176224168882271   9.9201395207252148   19.3910425851   T   T   T
17.1834215835224029   9.9212884582531053   19.3904898083   T   T   T
7.8051627366465590   5.8212186987137180   21.8989499580   T   T   T
8.6506774997667328   4.8752778032166439   21.0445720957   T   T   T
9.7035884400452730   5.0071911246036045   21.3145552694   T   T   T
8.4016494158455899   3.8437771010879720   21.3154082739   T   T   T
6.7306507552675594   5.6876870393239685   21.7320606785   T   T   T
8.0346056448811272   6.8761291983220056   21.7070633240   T   T   T
7.8608507348773227   5.7398919496076974   23.4121394855   T   T   T
7.3155293861535258   6.5863038468316129   23.8534195196   T   T   T
8.9142350115301312   5.8592074989487477   23.6885523999   T   T   T
7.4961787896779173   4.8324081806873194   23.9079098680   T   T   T
