Al Fe  C  O  H                          
   1.00000000000000     
    14.3189123190275875    0.0000000000000000    0.0000000000000000
     7.1594561595137938   12.4005418228398376    0.0000000000000000
   0.0000000000   0.0000000000   31.1392103291
   Al   Fe   C    O    H 
   122     3     1     1     1
Selective dynamics
Direct
0.9704794399373071   0.1443910229206580   0.3211385226   F   F   F
0.1704794399373100   0.1443910229206580   0.3211385226   F   F   F
0.3704794399373128   0.1443910229206580   0.3211385226   F   F   F
0.5704794399373085   0.1443910229206580   0.3211385226   F   F   F
0.7704794399373114   0.1443910229206580   0.3211385226   F   F   F
0.9704794399373071   0.3443910229206608   0.3211385226   F   F   F
0.1704794399373100   0.3443910229206608   0.3211385226   F   F   F
0.3704794399373128   0.3443910229206608   0.3211385226   F   F   F
0.5704794399373085   0.3443910229206608   0.3211385226   F   F   F
0.7704794399373114   0.3443910229206608   0.3211385226   F   F   F
0.9704794399373071   0.5443910229206566   0.3211385226   F   F   F
0.1704794399373100   0.5443910229206566   0.3211385226   F   F   F
0.3704794399373128   0.5443910229206566   0.3211385226   F   F   F
0.5704794399373085   0.5443910229206566   0.3211385226   F   F   F
0.7704794399373114   0.5443910229206566   0.3211385226   F   F   F
0.9704794399373071   0.7443910229206594   0.3211385226   F   F   F
0.1704794399373100   0.7443910229206594   0.3211385226   F   F   F
0.3704794399373128   0.7443910229206594   0.3211385226   F   F   F
0.5704794399373085   0.7443910229206594   0.3211385226   F   F   F
0.7704794399373114   0.7443910229206594   0.3211385226   F   F   F
0.9704794399373071   0.9443910229206622   0.3211385226   F   F   F
0.1704794399373100   0.9443910229206622   0.3211385226   F   F   F
0.3704794399373128   0.9443910229206622   0.3211385226   F   F   F
0.5704794399373085   0.9443910229206622   0.3211385226   F   F   F
0.7704794399373114   0.9443910229206622   0.3211385226   F   F   F
0.0371461066039771   0.0110576895873251   0.3962293346   F   F   F
0.2371461066039799   0.0110576895873251   0.3962293346   F   F   F
0.4371461066039757   0.0110576895873251   0.3962293346   F   F   F
0.6371461066039785   0.0110576895873251   0.3962293346   F   F   F
0.8371461066039743   0.0110576895873251   0.3962293346   F   F   F
0.0371461066039771   0.2110576895873280   0.3962293346   F   F   F
0.2371461066039799   0.2110576895873280   0.3962293346   F   F   F
0.4371461066039757   0.2110576895873280   0.3962293346   F   F   F
0.6371461066039785   0.2110576895873280   0.3962293346   F   F   F
0.8371461066039743   0.2110576895873280   0.3962293346   F   F   F
0.0371461066039771   0.4110576895873237   0.3962293346   F   F   F
0.2371461066039799   0.4110576895873237   0.3962293346   F   F   F
0.4371461066039757   0.4110576895873237   0.3962293346   F   F   F
0.6371461066039785   0.4110576895873237   0.3962293346   F   F   F
0.8371461066039743   0.4110576895873237   0.3962293346   F   F   F
0.0371461066039771   0.6110576895873265   0.3962293346   F   F   F
0.2371461066039799   0.6110576895873265   0.3962293346   F   F   F
0.4371461066039757   0.6110576895873265   0.3962293346   F   F   F
0.6371461066039785   0.6110576895873265   0.3962293346   F   F   F
0.8371461066039743   0.6110576895873265   0.3962293346   F   F   F
0.0371461066039771   0.8110576895873223   0.3962293346   F   F   F
0.2371461066039799   0.8110576895873223   0.3962293346   F   F   F
0.4371461066039757   0.8110576895873223   0.3962293346   F   F   F
0.6371461066039785   0.8110576895873223   0.3962293346   F   F   F
0.8371461066039743   0.8110576895873223   0.3962293346   F   F   F
0.1038127732706471   0.0777243562539951   0.4713201467   F   F   F
0.3038127732706428   0.0777243562539951   0.4713201467   F   F   F
0.5038127732706457   0.0777243562539951   0.4713201467   F   F   F
0.7038127732706414   0.0777243562539951   0.4713201467   F   F   F
0.9038127732706442   0.0777243562539951   0.4713201467   F   F   F
0.1038127732706471   0.2777243562539908   0.4713201467   F   F   F
0.3038127732706428   0.2777243562539908   0.4713201467   F   F   F
0.5038127732706457   0.2777243562539908   0.4713201467   F   F   F
0.7038127732706414   0.2777243562539908   0.4713201467   F   F   F
0.9038127732706442   0.2777243562539908   0.4713201467   F   F   F
0.1038127732706471   0.4777243562539937   0.4713201467   F   F   F
0.3038127732706428   0.4777243562539937   0.4713201467   F   F   F
0.5038127732706457   0.4777243562539937   0.4713201467   F   F   F
0.7038127732706414   0.4777243562539937   0.4713201467   F   F   F
0.9038127732706442   0.4777243562539937   0.4713201467   F   F   F
0.1038127732706471   0.6777243562539894   0.4713201467   F   F   F
0.3038127732706428   0.6777243562539894   0.4713201467   F   F   F
0.5038127732706457   0.6777243562539894   0.4713201467   F   F   F
0.7038127732706414   0.6777243562539894   0.4713201467   F   F   F
0.9038127732706442   0.6777243562539894   0.4713201467   F   F   F
0.1038127732706471   0.8777243562539923   0.4713201467   F   F   F
0.3038127732706428   0.8777243562539923   0.4713201467   F   F   F
0.5038127732706457   0.8777243562539923   0.4713201467   F   F   F
0.7038127732706414   0.8777243562539923   0.4713201467   F   F   F
0.9038127732706442   0.8777243562539923   0.4713201467   F   F   F
0.9710708553671559   0.1432696107766832   0.5464438424   T   T   T
0.1712325389186853   0.1449192955012068   0.5460666173   T   T   T
0.3727168944191073   0.1427168092452709   0.5452670473   T   T   T
0.5695394596425468   0.1421836460449064   0.5453366950   T   T   T
0.7679619386003718   0.1450986291192855   0.5462111223   T   T   T
0.9705856494248992   0.3461992304948321   0.5460105764   T   T   T
0.1708011471679675   0.3448795819873808   0.5445729622   T   T   T
0.3694711065749977   0.3457260965791323   0.5455518305   T   T   T
0.5653050206131454   0.3458733063091268   0.5454490511   T   T   T
0.7690567663114702   0.3453067445993102   0.5458376942   T   T   T
0.9684134275638273   0.5467774529505858   0.5452006537   T   T   T
0.1727104543705043   0.5413368535932014   0.5451755472   T   T   T
0.3692018494885412   0.5441892440918321   0.5484406247   T   T   T
0.5673019364856744   0.5460002168427168   0.5453297479   T   T   T
0.7682721908078950   0.5457132525943780   0.5463372487   T   T   T
0.9684994732179885   0.7431841927424602   0.5449604103   T   T   T
0.1712776488177913   0.7415156339199446   0.5439437634   T   T   T
0.3729847520859040   0.7433297315029815   0.5448447743   T   T   T
0.5699902773723593   0.7438249674790928   0.5468808838   T   T   T
0.7683066262776553   0.7448078334129221   0.5463148263   T   T   T
0.9713269629631942   0.9413365806344020   0.5461194154   T   T   T
0.1722379234636170   0.9408594160372666   0.5464514505   T   T   T
0.3709135465648833   0.9437567911787489   0.5461599549   T   T   T
0.5707897009891808   0.9420999703957949   0.5462007391   T   T   T
0.7699611483144754   0.9435950712689690   0.5458959815   T   T   T
0.0418707407854804   0.0023132596917544   0.6213575822   T   T   T
0.2366384010241303   0.0112549685829080   0.6216106125   T   T   T
0.4349890373123373   0.0153997252932446   0.6213599134   T   T   T
0.6350495562650996   0.0133172564382199   0.6213192893   T   T   T
0.8379228253011942   0.0098059442632729   0.6216007448   T   T   T
0.0379469731359367   0.2118728685525228   0.6211447505   T   T   T
0.2389327499245861   0.2181728477549729   0.6197129430   T   T   T
0.4269172619234931   0.2303236050631162   0.6197154939   T   T   T
0.6275309571423772   0.2166684980448693   0.6200379767   T   T   T
0.8371689717873132   0.2099391865424088   0.6210460929   T   T   T
0.0442860397269540   0.4125775918968334   0.6197153025   T   T   T
0.6347693030340603   0.4067132475407434   0.6179311808   T   T   T
0.8381360914804971   0.4121348209570164   0.6216102514   T   T   T
0.0562881436682837   0.5999818591511292   0.6186056241   T   T   T
0.4256028453743763   0.5971253580040566   0.6255283781   T   T   T
0.6296646001214647   0.6065722577929253   0.6222394277   T   T   T
0.8407302629177482   0.6100336852840673   0.6214299992   T   T   T
0.0473300744738203   0.7960615683109583   0.6197374060   T   T   T
0.2398640530591151   0.7930810081312102   0.6189741976   T   T   T
0.4315661761531995   0.8063985804537003   0.6219215750   T   T   T
0.6350201837750933   0.8093537886063863   0.6231477371   T   T   T
0.8416736778652525   0.8082394503608886   0.6211357862   T   T   T
0.2349393262786989   0.4067703559589952   0.6077202254   T   T   T
0.4374144911541816   0.4067093274015496   0.6103901880   T   T   T
0.2310811907553194   0.6097977317506210   0.6080035886   T   T   T
0.3121824690758266   0.5164577209414534   0.6540167663   T   T   T
0.4060360704421169   0.5121583921892603   0.6671249651   T   T   T
0.2839371418567964   0.4817551599308124   0.6788614774   T   T   T
 
  0.00000000E+00  0.00000000E+00  0.00000000E+00
  0.00000000E+00  0.00000000E+00  0.00000000E+00
  0.00000000E+00  0.00000000E+00  0.00000000E+00
  0.00000000E+00  0.00000000E+00  0.00000000E+00
  0.00000000E+00  0.00000000E+00  0.00000000E+00
  0.00000000E+00  0.00000000E+00  0.00000000E+00
  0.00000000E+00  0.00000000E+00  0.00000000E+00
  0.00000000E+00  0.00000000E+00  0.00000000E+00
  0.00000000E+00  0.00000000E+00  0.00000000E+00
  0.00000000E+00  0.00000000E+00  0.00000000E+00
  0.00000000E+00  0.00000000E+00  0.00000000E+00
  0.00000000E+00  0.00000000E+00  0.00000000E+00
  0.00000000E+00  0.00000000E+00  0.00000000E+00
  0.00000000E+00  0.00000000E+00  0.00000000E+00
  0.00000000E+00  0.00000000E+00  0.00000000E+00
  0.00000000E+00  0.00000000E+00  0.00000000E+00
  0.00000000E+00  0.00000000E+00  0.00000000E+00
  0.00000000E+00  0.00000000E+00  0.00000000E+00
  0.00000000E+00  0.00000000E+00  0.00000000E+00
  0.00000000E+00  0.00000000E+00  0.00000000E+00
  0.00000000E+00  0.00000000E+00  0.00000000E+00
  0.00000000E+00  0.00000000E+00  0.00000000E+00
  0.00000000E+00  0.00000000E+00  0.00000000E+00
  0.00000000E+00  0.00000000E+00  0.00000000E+00
  0.00000000E+00  0.00000000E+00  0.00000000E+00
  0.00000000E+00  0.00000000E+00  0.00000000E+00
  0.00000000E+00  0.00000000E+00  0.00000000E+00
  0.00000000E+00  0.00000000E+00  0.00000000E+00
  0.00000000E+00  0.00000000E+00  0.00000000E+00
  0.00000000E+00  0.00000000E+00  0.00000000E+00
  0.00000000E+00  0.00000000E+00  0.00000000E+00
  0.00000000E+00  0.00000000E+00  0.00000000E+00
  0.00000000E+00  0.00000000E+00  0.00000000E+00
  0.00000000E+00  0.00000000E+00  0.00000000E+00
  0.00000000E+00  0.00000000E+00  0.00000000E+00
  0.00000000E+00  0.00000000E+00  0.00000000E+00
  0.00000000E+00  0.00000000E+00  0.00000000E+00
  0.00000000E+00  0.00000000E+00  0.00000000E+00
  0.00000000E+00  0.00000000E+00  0.00000000E+00
  0.00000000E+00  0.00000000E+00  0.00000000E+00
  0.00000000E+00  0.00000000E+00  0.00000000E+00
  0.00000000E+00  0.00000000E+00  0.00000000E+00
  0.00000000E+00  0.00000000E+00  0.00000000E+00
  0.00000000E+00  0.00000000E+00  0.00000000E+00
  0.00000000E+00  0.00000000E+00  0.00000000E+00
  0.00000000E+00  0.00000000E+00  0.00000000E+00
  0.00000000E+00  0.00000000E+00  0.00000000E+00
  0.00000000E+00  0.00000000E+00  0.00000000E+00
  0.00000000E+00  0.00000000E+00  0.00000000E+00
  0.00000000E+00  0.00000000E+00  0.00000000E+00
  0.00000000E+00  0.00000000E+00  0.00000000E+00
  0.00000000E+00  0.00000000E+00  0.00000000E+00
  0.00000000E+00  0.00000000E+00  0.00000000E+00
  0.00000000E+00  0.00000000E+00  0.00000000E+00
  0.00000000E+00  0.00000000E+00  0.00000000E+00
  0.00000000E+00  0.00000000E+00  0.00000000E+00
  0.00000000E+00  0.00000000E+00  0.00000000E+00
  0.00000000E+00  0.00000000E+00  0.00000000E+00
  0.00000000E+00  0.00000000E+00  0.00000000E+00
  0.00000000E+00  0.00000000E+00  0.00000000E+00
  0.00000000E+00  0.00000000E+00  0.00000000E+00
  0.00000000E+00  0.00000000E+00  0.00000000E+00
  0.00000000E+00  0.00000000E+00  0.00000000E+00
  0.00000000E+00  0.00000000E+00  0.00000000E+00
  0.00000000E+00  0.00000000E+00  0.00000000E+00
  0.00000000E+00  0.00000000E+00  0.00000000E+00
  0.00000000E+00  0.00000000E+00  0.00000000E+00
  0.00000000E+00  0.00000000E+00  0.00000000E+00
  0.00000000E+00  0.00000000E+00  0.00000000E+00
  0.00000000E+00  0.00000000E+00  0.00000000E+00
  0.00000000E+00  0.00000000E+00  0.00000000E+00
  0.00000000E+00  0.00000000E+00  0.00000000E+00
  0.00000000E+00  0.00000000E+00  0.00000000E+00
  0.00000000E+00  0.00000000E+00  0.00000000E+00
  0.00000000E+00  0.00000000E+00  0.00000000E+00
  0.00000000E+00  0.00000000E+00  0.00000000E+00
  0.00000000E+00  0.00000000E+00  0.00000000E+00
  0.00000000E+00  0.00000000E+00  0.00000000E+00
  0.00000000E+00  0.00000000E+00  0.00000000E+00
  0.00000000E+00  0.00000000E+00  0.00000000E+00
  0.00000000E+00  0.00000000E+00  0.00000000E+00
  0.00000000E+00  0.00000000E+00  0.00000000E+00
  0.00000000E+00  0.00000000E+00  0.00000000E+00
  0.00000000E+00  0.00000000E+00  0.00000000E+00
  0.00000000E+00  0.00000000E+00  0.00000000E+00
  0.00000000E+00  0.00000000E+00  0.00000000E+00
  0.00000000E+00  0.00000000E+00  0.00000000E+00
  0.00000000E+00  0.00000000E+00  0.00000000E+00
  0.00000000E+00  0.00000000E+00  0.00000000E+00
  0.00000000E+00  0.00000000E+00  0.00000000E+00
  0.00000000E+00  0.00000000E+00  0.00000000E+00
  0.00000000E+00  0.00000000E+00  0.00000000E+00
  0.00000000E+00  0.00000000E+00  0.00000000E+00
  0.00000000E+00  0.00000000E+00  0.00000000E+00
  0.00000000E+00  0.00000000E+00  0.00000000E+00
  0.00000000E+00  0.00000000E+00  0.00000000E+00
  0.00000000E+00  0.00000000E+00  0.00000000E+00
  0.00000000E+00  0.00000000E+00  0.00000000E+00
  0.00000000E+00  0.00000000E+00  0.00000000E+00
  0.00000000E+00  0.00000000E+00  0.00000000E+00
  0.00000000E+00  0.00000000E+00  0.00000000E+00
  0.00000000E+00  0.00000000E+00  0.00000000E+00
  0.00000000E+00  0.00000000E+00  0.00000000E+00
  0.00000000E+00  0.00000000E+00  0.00000000E+00
  0.00000000E+00  0.00000000E+00  0.00000000E+00
  0.00000000E+00  0.00000000E+00  0.00000000E+00
  0.00000000E+00  0.00000000E+00  0.00000000E+00
  0.00000000E+00  0.00000000E+00  0.00000000E+00
  0.00000000E+00  0.00000000E+00  0.00000000E+00
  0.00000000E+00  0.00000000E+00  0.00000000E+00
  0.00000000E+00  0.00000000E+00  0.00000000E+00
  0.00000000E+00  0.00000000E+00  0.00000000E+00
  0.00000000E+00  0.00000000E+00  0.00000000E+00
  0.00000000E+00  0.00000000E+00  0.00000000E+00
  0.00000000E+00  0.00000000E+00  0.00000000E+00
  0.00000000E+00  0.00000000E+00  0.00000000E+00
  0.00000000E+00  0.00000000E+00  0.00000000E+00
  0.00000000E+00  0.00000000E+00  0.00000000E+00
  0.00000000E+00  0.00000000E+00  0.00000000E+00
  0.00000000E+00  0.00000000E+00  0.00000000E+00
  0.00000000E+00  0.00000000E+00  0.00000000E+00
  0.00000000E+00  0.00000000E+00  0.00000000E+00
  0.00000000E+00  0.00000000E+00  0.00000000E+00
  0.00000000E+00  0.00000000E+00  0.00000000E+00
  0.00000000E+00  0.00000000E+00  0.00000000E+00
  0.00000000E+00  0.00000000E+00  0.00000000E+00
  0.00000000E+00  0.00000000E+00  0.00000000E+00
  0.00000000E+00  0.00000000E+00  0.00000000E+00
