Al Fe Al 
 1.0000000000000000
    14.3189123190275875    0.0000000000000000    0.0000000000000000
     7.1594561595137938   12.4005418228398376    0.0000000000000000
   0.0000000000   0.0000000000   29.3530743609
 Al  Fe  Al 
 112   1  12
Selective dynamics
Cartesian
0.0000000000000000   1.6534055763786450   10.0000000000   F   F   F
2.8637824638055176   1.6534055763786450   10.0000000000   F   F   F
5.7275649276110352   1.6534055763786450   10.0000000000   F   F   F
8.5913473914165532   1.6534055763786450   10.0000000000   F   F   F
11.4551298552220704   1.6534055763786450   10.0000000000   F   F   F
1.4318912319027586   4.1335139409466128   10.0000000000   F   F   F
4.2956736957082757   4.1335139409466128   10.0000000000   F   F   F
7.1594561595137938   4.1335139409466128   10.0000000000   F   F   F
10.0232386233193118   4.1335139409466128   10.0000000000   F   F   F
12.8870210871248290   4.1335139409466128   10.0000000000   F   F   F
2.8637824638055176   6.6136223055145802   10.0000000000   F   F   F
5.7275649276110352   6.6136223055145802   10.0000000000   F   F   F
8.5913473914165532   6.6136223055145802   10.0000000000   F   F   F
11.4551298552220704   6.6136223055145802   10.0000000000   F   F   F
14.3189123190275875   6.6136223055145802   10.0000000000   F   F   F
4.2956736957082766   9.0937306700825484   10.0000000000   F   F   F
7.1594561595137947   9.0937306700825484   10.0000000000   F   F   F
10.0232386233193118   9.0937306700825484   10.0000000000   F   F   F
12.8870210871248290   9.0937306700825484   10.0000000000   F   F   F
15.7508035509303461   9.0937306700825484   10.0000000000   F   F   F
5.7275649276110361   11.5738390346505167   10.0000000000   F   F   F
8.5913473914165532   11.5738390346505167   10.0000000000   F   F   F
11.4551298552220722   11.5738390346505167   10.0000000000   F   F   F
14.3189123190275893   11.5738390346505167   10.0000000000   F   F   F
17.1826947828331065   11.5738390346505167   10.0000000000   F   F   F
0.0000000000000000   0.0000000000000000   12.3382685902   F   F   F
2.8637824638055176   0.0000000000000000   12.3382685902   F   F   F
5.7275649276110352   0.0000000000000000   12.3382685902   F   F   F
8.5913473914165532   0.0000000000000000   12.3382685902   F   F   F
11.4551298552220704   0.0000000000000000   12.3382685902   F   F   F
1.4318912319027588   2.4801083645679678   12.3382685902   F   F   F
4.2956736957082766   2.4801083645679678   12.3382685902   F   F   F
7.1594561595137938   2.4801083645679678   12.3382685902   F   F   F
10.0232386233193118   2.4801083645679678   12.3382685902   F   F   F
12.8870210871248290   2.4801083645679678   12.3382685902   F   F   F
2.8637824638055176   4.9602167291359356   12.3382685902   F   F   F
5.7275649276110352   4.9602167291359356   12.3382685902   F   F   F
8.5913473914165532   4.9602167291359356   12.3382685902   F   F   F
11.4551298552220704   4.9602167291359356   12.3382685902   F   F   F
14.3189123190275875   4.9602167291359356   12.3382685902   F   F   F
4.2956736957082766   7.4403250937039029   12.3382685902   F   F   F
7.1594561595137947   7.4403250937039029   12.3382685902   F   F   F
10.0232386233193118   7.4403250937039029   12.3382685902   F   F   F
12.8870210871248290   7.4403250937039029   12.3382685902   F   F   F
15.7508035509303461   7.4403250937039029   12.3382685902   F   F   F
5.7275649276110352   9.9204334582718712   12.3382685902   F   F   F
8.5913473914165532   9.9204334582718712   12.3382685902   F   F   F
11.4551298552220704   9.9204334582718712   12.3382685902   F   F   F
14.3189123190275893   9.9204334582718712   12.3382685902   F   F   F
17.1826947828331065   9.9204334582718712   12.3382685902   F   F   F
1.4318912319027588   0.8267027881893225   14.6765371804   F   F   F
4.2956736957082766   0.8267027881893225   14.6765371804   F   F   F
7.1594561595137947   0.8267027881893225   14.6765371804   F   F   F
10.0232386233193118   0.8267027881893225   14.6765371804   F   F   F
12.8870210871248290   0.8267027881893225   14.6765371804   F   F   F
2.8637824638055176   3.3068111527572901   14.6765371804   F   F   F
5.7275649276110352   3.3068111527572901   14.6765371804   F   F   F
8.5913473914165532   3.3068111527572901   14.6765371804   F   F   F
11.4551298552220704   3.3068111527572901   14.6765371804   F   F   F
14.3189123190275875   3.3068111527572901   14.6765371804   F   F   F
4.2956736957082766   5.7869195173252583   14.6765371804   F   F   F
7.1594561595137947   5.7869195173252583   14.6765371804   F   F   F
10.0232386233193118   5.7869195173252583   14.6765371804   F   F   F
12.8870210871248290   5.7869195173252583   14.6765371804   F   F   F
15.7508035509303461   5.7869195173252583   14.6765371804   F   F   F
5.7275649276110352   8.2670278818932257   14.6765371804   F   F   F
8.5913473914165532   8.2670278818932257   14.6765371804   F   F   F
11.4551298552220722   8.2670278818932257   14.6765371804   F   F   F
14.3189123190275893   8.2670278818932257   14.6765371804   F   F   F
17.1826947828331065   8.2670278818932257   14.6765371804   F   F   F
7.1594561595137938   10.7471362464611939   14.6765371804   F   F   F
10.0232386233193118   10.7471362464611939   14.6765371804   F   F   F
12.8870210871248290   10.7471362464611939   14.6765371804   F   F   F
15.7508035509303461   10.7471362464611939   14.6765371804   F   F   F
18.6145860147358633   10.7471362464611939   14.6765371804   F   F   F
0.0000000000000000   1.6534055763786450   17.0148057707   T   T   T
2.8637824638055176   1.6534055763786450   17.0148057707   T   T   T
5.7275649276110352   1.6534055763786450   17.0148057707   T   T   T
8.5913473914165532   1.6534055763786450   17.0148057707   T   T   T
11.4551298552220704   1.6534055763786450   17.0148057707   T   T   T
1.4318912319027586   4.1335139409466128   17.0148057707   T   T   T
4.2956736957082757   4.1335139409466128   17.0148057707   T   T   T
7.1594561595137938   4.1335139409466128   17.0148057707   T   T   T
10.0232386233193118   4.1335139409466128   17.0148057707   T   T   T
12.8870210871248290   4.1335139409466128   17.0148057707   T   T   T
2.8637824638055176   6.6136223055145802   17.0148057707   T   T   T
5.7275649276110352   6.6136223055145802   17.0148057707   T   T   T
8.5913473914165532   6.6136223055145802   17.0148057707   T   T   T
11.4551298552220704   6.6136223055145802   17.0148057707   T   T   T
14.3189123190275875   6.6136223055145802   17.0148057707   T   T   T
4.2956736957082766   9.0937306700825484   17.0148057707   T   T   T
7.1594561595137947   9.0937306700825484   17.0148057707   T   T   T
10.0232386233193118   9.0937306700825484   17.0148057707   T   T   T
12.8870210871248290   9.0937306700825484   17.0148057707   T   T   T
15.7508035509303461   9.0937306700825484   17.0148057707   T   T   T
5.7275649276110361   11.5738390346505167   17.0148057707   T   T   T
8.5913473914165532   11.5738390346505167   17.0148057707   T   T   T
11.4551298552220722   11.5738390346505167   17.0148057707   T   T   T
14.3189123190275893   11.5738390346505167   17.0148057707   T   T   T
17.1826947828331065   11.5738390346505167   17.0148057707   T   T   T
0.0000000000000000   0.0000000000000000   19.3530743609   T   T   T
2.8637824638055176   0.0000000000000000   19.3530743609   T   T   T
5.7275649276110352   0.0000000000000000   19.3530743609   T   T   T
8.5913473914165532   0.0000000000000000   19.3530743609   T   T   T
11.4551298552220704   0.0000000000000000   19.3530743609   T   T   T
1.4318912319027588   2.4801083645679678   19.3530743609   T   T   T
4.2956736957082766   2.4801083645679678   19.3530743609   T   T   T
7.1594561595137938   2.4801083645679678   19.3530743609   T   T   T
10.0232386233193118   2.4801083645679678   19.3530743609   T   T   T
12.8870210871248290   2.4801083645679678   19.3530743609   T   T   T
2.8637824638055176   4.9602167291359356   19.3530743609   T   T   T
5.7275649276110352   4.9602167291359356   19.3530743609   T   T   T
8.5913473914165532   4.9602167291359356   19.3530743609   T   T   T
11.4551298552220704   4.9602167291359356   19.3530743609   T   T   T
14.3189123190275875   4.9602167291359356   19.3530743609   T   T   T
4.2956736957082766   7.4403250937039029   19.3530743609   T   T   T
7.1594561595137947   7.4403250937039029   19.3530743609   T   T   T
10.0232386233193118   7.4403250937039029   19.3530743609   T   T   T
12.8870210871248290   7.4403250937039029   19.3530743609   T   T   T
15.7508035509303461   7.4403250937039029   19.3530743609   T   T   T
5.7275649276110352   9.9204334582718712   19.3530743609   T   T   T
8.5913473914165532   9.9204334582718712   19.3530743609   T   T   T
11.4551298552220704   9.9204334582718712   19.3530743609   T   T   T
14.3189123190275893   9.9204334582718712   19.3530743609   T   T   T
17.1826947828331065   9.9204334582718712   19.3530743609   T   T   T
