Al Fe Al  O  C  O  C                    
   1.00000000000000     
    14.3189123190275875    0.0000000000000000    0.0000000000000000
     7.1594561595137938   12.4005418228398376    0.0000000000000000
     0.0000000000000000    0.0000000000000000   39.3530743608719362
   Al   Fe   Al   O    C    O    C 
   112     1    12     1     1     1     1
Selective dynamics
Direct
  0.9333333333333300  0.1333333333333329  0.4573975551423999   F   F   F
  0.1333333333333329  0.1333333333333329  0.4573975551423999   F   F   F
  0.3333333333333357  0.1333333333333329  0.4573975551423999   F   F   F
  0.5333333333333314  0.1333333333333329  0.4573975551423999   F   F   F
  0.7333333333333343  0.1333333333333329  0.4573975551423999   F   F   F
  0.9333333333333300  0.3333333333333357  0.4573975551423999   F   F   F
  0.1333333333333329  0.3333333333333357  0.4573975551423999   F   F   F
  0.3333333333333357  0.3333333333333357  0.4573975551423999   F   F   F
  0.5333333333333314  0.3333333333333357  0.4573975551423999   F   F   F
  0.7333333333333343  0.3333333333333357  0.4573975551423999   F   F   F
  0.9333333333333300  0.5333333333333314  0.4573975551423999   F   F   F
  0.1333333333333329  0.5333333333333314  0.4573975551423999   F   F   F
  0.3333333333333357  0.5333333333333314  0.4573975551423999   F   F   F
  0.5333333333333314  0.5333333333333314  0.4573975551423999   F   F   F
  0.7333333333333343  0.5333333333333314  0.4573975551423999   F   F   F
  0.9333333333333300  0.7333333333333343  0.4573975551423999   F   F   F
  0.1333333333333329  0.7333333333333343  0.4573975551423999   F   F   F
  0.3333333333333357  0.7333333333333343  0.4573975551423999   F   F   F
  0.5333333333333314  0.7333333333333343  0.4573975551423999   F   F   F
  0.7333333333333343  0.7333333333333343  0.4573975551423999   F   F   F
  0.9333333333333300  0.9333333333333371  0.4573975551423999   F   F   F
  0.1333333333333329  0.9333333333333371  0.4573975551423999   F   F   F
  0.3333333333333357  0.9333333333333371  0.4573975551423999   F   F   F
  0.5333333333333314  0.9333333333333371  0.4573975551423999   F   F   F
  0.7333333333333343  0.9333333333333371  0.4573975551423999   F   F   F
  0.0000000000000000  0.0000000000000000  0.5168152404997386   F   F   F
  0.2000000000000028  0.0000000000000000  0.5168152404997386   F   F   F
  0.3999999999999986  0.0000000000000000  0.5168152404997386   F   F   F
  0.6000000000000014  0.0000000000000000  0.5168152404997386   F   F   F
  0.7999999999999972  0.0000000000000000  0.5168152404997386   F   F   F
  0.0000000000000000  0.2000000000000028  0.5168152404997386   F   F   F
  0.2000000000000028  0.2000000000000028  0.5168152404997386   F   F   F
  0.3999999999999986  0.2000000000000028  0.5168152404997386   F   F   F
  0.6000000000000014  0.2000000000000028  0.5168152404997386   F   F   F
  0.7999999999999972  0.2000000000000028  0.5168152404997386   F   F   F
  0.0000000000000000  0.3999999999999986  0.5168152404997386   F   F   F
  0.2000000000000028  0.3999999999999986  0.5168152404997386   F   F   F
  0.3999999999999986  0.3999999999999986  0.5168152404997386   F   F   F
  0.6000000000000014  0.3999999999999986  0.5168152404997386   F   F   F
  0.7999999999999972  0.3999999999999986  0.5168152404997386   F   F   F
  0.0000000000000000  0.6000000000000014  0.5168152404997386   F   F   F
  0.2000000000000028  0.6000000000000014  0.5168152404997386   F   F   F
  0.3999999999999986  0.6000000000000014  0.5168152404997386   F   F   F
  0.6000000000000014  0.6000000000000014  0.5168152404997386   F   F   F
  0.7999999999999972  0.6000000000000014  0.5168152404997386   F   F   F
  0.0000000000000000  0.7999999999999972  0.5168152404997386   F   F   F
  0.2000000000000028  0.7999999999999972  0.5168152404997386   F   F   F
  0.3999999999999986  0.7999999999999972  0.5168152404997386   F   F   F
  0.6000000000000014  0.7999999999999972  0.5168152404997386   F   F   F
  0.7999999999999972  0.7999999999999972  0.5168152404997386   F   F   F
  0.0666666666666700  0.0666666666666700  0.5762329258570702   F   F   F
  0.2666666666666657  0.0666666666666700  0.5762329258570702   F   F   F
  0.4666666666666686  0.0666666666666700  0.5762329258570702   F   F   F
  0.6666666666666643  0.0666666666666700  0.5762329258570702   F   F   F
  0.8666666666666671  0.0666666666666700  0.5762329258570702   F   F   F
  0.0666666666666700  0.2666666666666657  0.5762329258570702   F   F   F
  0.2666666666666657  0.2666666666666657  0.5762329258570702   F   F   F
  0.4666666666666686  0.2666666666666657  0.5762329258570702   F   F   F
  0.6666666666666643  0.2666666666666657  0.5762329258570702   F   F   F
  0.8666666666666671  0.2666666666666657  0.5762329258570702   F   F   F
  0.0666666666666700  0.4666666666666686  0.5762329258570702   F   F   F
  0.2666666666666657  0.4666666666666686  0.5762329258570702   F   F   F
  0.4666666666666686  0.4666666666666686  0.5762329258570702   F   F   F
  0.6666666666666643  0.4666666666666686  0.5762329258570702   F   F   F
  0.8666666666666671  0.4666666666666686  0.5762329258570702   F   F   F
  0.0666666666666700  0.6666666666666643  0.5762329258570702   F   F   F
  0.2666666666666657  0.6666666666666643  0.5762329258570702   F   F   F
  0.4666666666666686  0.6666666666666643  0.5762329258570702   F   F   F
  0.6666666666666643  0.6666666666666643  0.5762329258570702   F   F   F
  0.8666666666666671  0.6666666666666643  0.5762329258570702   F   F   F
  0.0666666666666700  0.8666666666666671  0.5762329258570702   F   F   F
  0.2666666666666657  0.8666666666666671  0.5762329258570702   F   F   F
  0.4666666666666686  0.8666666666666671  0.5762329258570702   F   F   F
  0.6666666666666643  0.8666666666666671  0.5762329258570702   F   F   F
  0.8666666666666671  0.8666666666666671  0.5762329258570702   F   F   F
  0.9319546449427684  0.1341864221833869  0.6357272700756501   T   T   T
  0.1334058060861431  0.1342287983106931  0.6357476579916147   T   T   T
  0.3327147535429511  0.1342746280815362  0.6350111159367385   T   T   T
  0.5335107076639372  0.1329552468696831  0.6347993033130863   T   T   T
  0.7327137945634804  0.1346282917377833  0.6350255560026535   T   T   T
  0.9332554389483230  0.3334337091069767  0.6354592702615421   T   T   T
  0.1348158450862063  0.3340497581751142  0.6356877568267686   T   T   T
  0.3351082070140679  0.3359367657440211  0.6361519735828658   T   T   T
  0.5282592809906763  0.3364764234841466  0.6362924015116330   T   T   T
  0.7309193708391791  0.3341035492191899  0.6357057339143967   T   T   T
  0.9337615890029533  0.5329936225409311  0.6360240225911786   T   T   T
  0.1332800062961678  0.5326336882964243  0.6350434706664663   T   T   T
  0.3343255796823672  0.5315507042652237  0.6352732674797817   T   T   T
  0.5338496124716483  0.5329788860196898  0.6349275976774559   T   T   T
  0.7332794190378666  0.5330674406289286  0.6360215993796667   T   T   T
  0.9336923931964409  0.7326508105514499  0.6358720515847027   T   T   T
  0.1323367866955223  0.7343633118145741  0.6347967783331945   T   T   T
  0.3331638131896441  0.7344391338835250  0.6347469147667448   T   T   T
  0.5335030622775357  0.7327921528884813  0.6358336704192686   T   T   T
  0.7334147573698969  0.7329490268513066  0.6364747034375783   T   T   T
  0.9331128698238836  0.9334528869037497  0.6353132895454801   T   T   T
  0.1325848535464148  0.9345207971166312  0.6354513852636015   T   T   T
  0.3335112351169977  0.9336587018721574  0.6352851105033716   T   T   T
  0.5329414685135718  0.9335511856420291  0.6356874750202457   T   T   T
  0.7334840763482923  0.9335358700436100  0.6356372027311666   T   T   T
 -0.0002060473340760 -0.0002788492854047  0.6948838778247516   T   T   T
  0.2000128028014008  0.0000838608589356  0.6949208679872799   T   T   T
  0.3998872446706010  0.0008153414717996  0.6954170583863950   T   T   T
  0.5984527438518451  0.0031080032223553  0.6949254724878317   T   T   T
  0.7988115255514366  0.0009259135141705  0.6953631410114387   T   T   T
 -0.0002768254649138  0.2007803910939143  0.6950034864751585   T   T   T
  0.2011225006038614  0.2009351346281771  0.6954397926660497   T   T   T
  0.3980971744160753  0.2030802239482581  0.6927485008151453   T   T   T
  0.5991957951586310  0.2028237749659201  0.6928611132827714   T   T   T
  0.7982860768572408  0.2004875696602266  0.6953750497397516   T   T   T
  0.0020598342789822  0.3999389173262946  0.6955606772526551   T   T   T
  0.2081099993047645  0.3995146086862427  0.6952770158380155   T   T   T
  0.4098043779430588  0.3851588692046557  0.7076086799613075   T   T   T
  0.5933960974638435  0.3992143489246168  0.6953858064179059   T   T   T
  0.7981555810527209  0.3997983031696404  0.6955386742513008   T   T   T
  0.0036575585497826  0.5980631068463912  0.6958947109325841   T   T   T
  0.2035324513235839  0.5968798066964039  0.6926793443257337   T   T   T
  0.3999449037421175  0.5967399486132766  0.6924331697117145   T   T   T
  0.5981416956925987  0.5982335477369528  0.6957343712154398   T   T   T
  0.8000172138468186  0.5995061001813846  0.6962361115034964   T   T   T
  0.0015759215107616  0.7980595803471109  0.6952146660906302   T   T   T
  0.2014545047387775  0.7974644748243432  0.6946821167779605   T   T   T
  0.3998816986305942  0.7984797794295421  0.6952089935353823   T   T   T
  0.5991918470389141  0.8003453831592041  0.6959005342058769   T   T   T
  0.7999756704139278  0.8002592743669953  0.6958644114720139   T   T   T
  0.4772640964050087  0.2440351934163127  0.7671267955852463   T   T   T
  0.4552600859272178  0.2902384331062116  0.7408430795362486   T   T   T
  0.3381236663353305  0.5324526535653122  0.7661958281396916   T   T   T
  0.3620840434770961  0.4839980356862756  0.7403904685932191   T   T   T
 
  0.00000000E+00  0.00000000E+00  0.00000000E+00
  0.00000000E+00  0.00000000E+00  0.00000000E+00
  0.00000000E+00  0.00000000E+00  0.00000000E+00
  0.00000000E+00  0.00000000E+00  0.00000000E+00
  0.00000000E+00  0.00000000E+00  0.00000000E+00
  0.00000000E+00  0.00000000E+00  0.00000000E+00
  0.00000000E+00  0.00000000E+00  0.00000000E+00
  0.00000000E+00  0.00000000E+00  0.00000000E+00
  0.00000000E+00  0.00000000E+00  0.00000000E+00
  0.00000000E+00  0.00000000E+00  0.00000000E+00
  0.00000000E+00  0.00000000E+00  0.00000000E+00
  0.00000000E+00  0.00000000E+00  0.00000000E+00
  0.00000000E+00  0.00000000E+00  0.00000000E+00
  0.00000000E+00  0.00000000E+00  0.00000000E+00
  0.00000000E+00  0.00000000E+00  0.00000000E+00
  0.00000000E+00  0.00000000E+00  0.00000000E+00
  0.00000000E+00  0.00000000E+00  0.00000000E+00
  0.00000000E+00  0.00000000E+00  0.00000000E+00
  0.00000000E+00  0.00000000E+00  0.00000000E+00
  0.00000000E+00  0.00000000E+00  0.00000000E+00
  0.00000000E+00  0.00000000E+00  0.00000000E+00
  0.00000000E+00  0.00000000E+00  0.00000000E+00
  0.00000000E+00  0.00000000E+00  0.00000000E+00
  0.00000000E+00  0.00000000E+00  0.00000000E+00
  0.00000000E+00  0.00000000E+00  0.00000000E+00
  0.00000000E+00  0.00000000E+00  0.00000000E+00
  0.00000000E+00  0.00000000E+00  0.00000000E+00
  0.00000000E+00  0.00000000E+00  0.00000000E+00
  0.00000000E+00  0.00000000E+00  0.00000000E+00
  0.00000000E+00  0.00000000E+00  0.00000000E+00
  0.00000000E+00  0.00000000E+00  0.00000000E+00
  0.00000000E+00  0.00000000E+00  0.00000000E+00
  0.00000000E+00  0.00000000E+00  0.00000000E+00
  0.00000000E+00  0.00000000E+00  0.00000000E+00
  0.00000000E+00  0.00000000E+00  0.00000000E+00
  0.00000000E+00  0.00000000E+00  0.00000000E+00
  0.00000000E+00  0.00000000E+00  0.00000000E+00
  0.00000000E+00  0.00000000E+00  0.00000000E+00
  0.00000000E+00  0.00000000E+00  0.00000000E+00
  0.00000000E+00  0.00000000E+00  0.00000000E+00
  0.00000000E+00  0.00000000E+00  0.00000000E+00
  0.00000000E+00  0.00000000E+00  0.00000000E+00
  0.00000000E+00  0.00000000E+00  0.00000000E+00
  0.00000000E+00  0.00000000E+00  0.00000000E+00
  0.00000000E+00  0.00000000E+00  0.00000000E+00
  0.00000000E+00  0.00000000E+00  0.00000000E+00
  0.00000000E+00  0.00000000E+00  0.00000000E+00
  0.00000000E+00  0.00000000E+00  0.00000000E+00
  0.00000000E+00  0.00000000E+00  0.00000000E+00
  0.00000000E+00  0.00000000E+00  0.00000000E+00
  0.00000000E+00  0.00000000E+00  0.00000000E+00
  0.00000000E+00  0.00000000E+00  0.00000000E+00
  0.00000000E+00  0.00000000E+00  0.00000000E+00
  0.00000000E+00  0.00000000E+00  0.00000000E+00
  0.00000000E+00  0.00000000E+00  0.00000000E+00
  0.00000000E+00  0.00000000E+00  0.00000000E+00
  0.00000000E+00  0.00000000E+00  0.00000000E+00
  0.00000000E+00  0.00000000E+00  0.00000000E+00
  0.00000000E+00  0.00000000E+00  0.00000000E+00
  0.00000000E+00  0.00000000E+00  0.00000000E+00
  0.00000000E+00  0.00000000E+00  0.00000000E+00
  0.00000000E+00  0.00000000E+00  0.00000000E+00
  0.00000000E+00  0.00000000E+00  0.00000000E+00
  0.00000000E+00  0.00000000E+00  0.00000000E+00
  0.00000000E+00  0.00000000E+00  0.00000000E+00
  0.00000000E+00  0.00000000E+00  0.00000000E+00
  0.00000000E+00  0.00000000E+00  0.00000000E+00
  0.00000000E+00  0.00000000E+00  0.00000000E+00
  0.00000000E+00  0.00000000E+00  0.00000000E+00
  0.00000000E+00  0.00000000E+00  0.00000000E+00
  0.00000000E+00  0.00000000E+00  0.00000000E+00
  0.00000000E+00  0.00000000E+00  0.00000000E+00
  0.00000000E+00  0.00000000E+00  0.00000000E+00
  0.00000000E+00  0.00000000E+00  0.00000000E+00
  0.00000000E+00  0.00000000E+00  0.00000000E+00
  0.00000000E+00  0.00000000E+00  0.00000000E+00
  0.00000000E+00  0.00000000E+00  0.00000000E+00
  0.00000000E+00  0.00000000E+00  0.00000000E+00
  0.00000000E+00  0.00000000E+00  0.00000000E+00
  0.00000000E+00  0.00000000E+00  0.00000000E+00
  0.00000000E+00  0.00000000E+00  0.00000000E+00
  0.00000000E+00  0.00000000E+00  0.00000000E+00
  0.00000000E+00  0.00000000E+00  0.00000000E+00
  0.00000000E+00  0.00000000E+00  0.00000000E+00
  0.00000000E+00  0.00000000E+00  0.00000000E+00
  0.00000000E+00  0.00000000E+00  0.00000000E+00
  0.00000000E+00  0.00000000E+00  0.00000000E+00
  0.00000000E+00  0.00000000E+00  0.00000000E+00
  0.00000000E+00  0.00000000E+00  0.00000000E+00
  0.00000000E+00  0.00000000E+00  0.00000000E+00
  0.00000000E+00  0.00000000E+00  0.00000000E+00
  0.00000000E+00  0.00000000E+00  0.00000000E+00
  0.00000000E+00  0.00000000E+00  0.00000000E+00
  0.00000000E+00  0.00000000E+00  0.00000000E+00
  0.00000000E+00  0.00000000E+00  0.00000000E+00
  0.00000000E+00  0.00000000E+00  0.00000000E+00
  0.00000000E+00  0.00000000E+00  0.00000000E+00
  0.00000000E+00  0.00000000E+00  0.00000000E+00
  0.00000000E+00  0.00000000E+00  0.00000000E+00
  0.00000000E+00  0.00000000E+00  0.00000000E+00
  0.00000000E+00  0.00000000E+00  0.00000000E+00
  0.00000000E+00  0.00000000E+00  0.00000000E+00
  0.00000000E+00  0.00000000E+00  0.00000000E+00
  0.00000000E+00  0.00000000E+00  0.00000000E+00
  0.00000000E+00  0.00000000E+00  0.00000000E+00
  0.00000000E+00  0.00000000E+00  0.00000000E+00
  0.00000000E+00  0.00000000E+00  0.00000000E+00
  0.00000000E+00  0.00000000E+00  0.00000000E+00
  0.00000000E+00  0.00000000E+00  0.00000000E+00
  0.00000000E+00  0.00000000E+00  0.00000000E+00
  0.00000000E+00  0.00000000E+00  0.00000000E+00
  0.00000000E+00  0.00000000E+00  0.00000000E+00
  0.00000000E+00  0.00000000E+00  0.00000000E+00
  0.00000000E+00  0.00000000E+00  0.00000000E+00
  0.00000000E+00  0.00000000E+00  0.00000000E+00
  0.00000000E+00  0.00000000E+00  0.00000000E+00
  0.00000000E+00  0.00000000E+00  0.00000000E+00
  0.00000000E+00  0.00000000E+00  0.00000000E+00
  0.00000000E+00  0.00000000E+00  0.00000000E+00
  0.00000000E+00  0.00000000E+00  0.00000000E+00
  0.00000000E+00  0.00000000E+00  0.00000000E+00
  0.00000000E+00  0.00000000E+00  0.00000000E+00
  0.00000000E+00  0.00000000E+00  0.00000000E+00
  0.00000000E+00  0.00000000E+00  0.00000000E+00
  0.00000000E+00  0.00000000E+00  0.00000000E+00
  0.00000000E+00  0.00000000E+00  0.00000000E+00
  0.00000000E+00  0.00000000E+00  0.00000000E+00
  0.00000000E+00  0.00000000E+00  0.00000000E+00
  0.00000000E+00  0.00000000E+00  0.00000000E+00
