Al Fe Al  C  H  C  H                    
   1.00000000000000     
    14.3189123190275875    0.0000000000000000    0.0000000000000000
     7.1594561595137938   12.4005418228398376    0.0000000000000000
     0.0000000000000000    0.0000000000000000   39.3530743608719362
   Al   Fe   Al   C    H    C    H 
   112     1    12     1     2     1     2
Selective dynamics
Direct
  0.9333333333333300  0.1333333333333329  0.4573975551423999   F   F   F
  0.1333333333333329  0.1333333333333329  0.4573975551423999   F   F   F
  0.3333333333333357  0.1333333333333329  0.4573975551423999   F   F   F
  0.5333333333333314  0.1333333333333329  0.4573975551423999   F   F   F
  0.7333333333333343  0.1333333333333329  0.4573975551423999   F   F   F
  0.9333333333333300  0.3333333333333357  0.4573975551423999   F   F   F
  0.1333333333333329  0.3333333333333357  0.4573975551423999   F   F   F
  0.3333333333333357  0.3333333333333357  0.4573975551423999   F   F   F
  0.5333333333333314  0.3333333333333357  0.4573975551423999   F   F   F
  0.7333333333333343  0.3333333333333357  0.4573975551423999   F   F   F
  0.9333333333333300  0.5333333333333314  0.4573975551423999   F   F   F
  0.1333333333333329  0.5333333333333314  0.4573975551423999   F   F   F
  0.3333333333333357  0.5333333333333314  0.4573975551423999   F   F   F
  0.5333333333333314  0.5333333333333314  0.4573975551423999   F   F   F
  0.7333333333333343  0.5333333333333314  0.4573975551423999   F   F   F
  0.9333333333333300  0.7333333333333343  0.4573975551423999   F   F   F
  0.1333333333333329  0.7333333333333343  0.4573975551423999   F   F   F
  0.3333333333333357  0.7333333333333343  0.4573975551423999   F   F   F
  0.5333333333333314  0.7333333333333343  0.4573975551423999   F   F   F
  0.7333333333333343  0.7333333333333343  0.4573975551423999   F   F   F
  0.9333333333333300  0.9333333333333371  0.4573975551423999   F   F   F
  0.1333333333333329  0.9333333333333371  0.4573975551423999   F   F   F
  0.3333333333333357  0.9333333333333371  0.4573975551423999   F   F   F
  0.5333333333333314  0.9333333333333371  0.4573975551423999   F   F   F
  0.7333333333333343  0.9333333333333371  0.4573975551423999   F   F   F
  0.0000000000000000  0.0000000000000000  0.5168152404997386   F   F   F
  0.2000000000000028  0.0000000000000000  0.5168152404997386   F   F   F
  0.3999999999999986  0.0000000000000000  0.5168152404997386   F   F   F
  0.6000000000000014  0.0000000000000000  0.5168152404997386   F   F   F
  0.7999999999999972  0.0000000000000000  0.5168152404997386   F   F   F
  0.0000000000000000  0.2000000000000028  0.5168152404997386   F   F   F
  0.2000000000000028  0.2000000000000028  0.5168152404997386   F   F   F
  0.3999999999999986  0.2000000000000028  0.5168152404997386   F   F   F
  0.6000000000000014  0.2000000000000028  0.5168152404997386   F   F   F
  0.7999999999999972  0.2000000000000028  0.5168152404997386   F   F   F
  0.0000000000000000  0.3999999999999986  0.5168152404997386   F   F   F
  0.2000000000000028  0.3999999999999986  0.5168152404997386   F   F   F
  0.3999999999999986  0.3999999999999986  0.5168152404997386   F   F   F
  0.6000000000000014  0.3999999999999986  0.5168152404997386   F   F   F
  0.7999999999999972  0.3999999999999986  0.5168152404997386   F   F   F
  0.0000000000000000  0.6000000000000014  0.5168152404997386   F   F   F
  0.2000000000000028  0.6000000000000014  0.5168152404997386   F   F   F
  0.3999999999999986  0.6000000000000014  0.5168152404997386   F   F   F
  0.6000000000000014  0.6000000000000014  0.5168152404997386   F   F   F
  0.7999999999999972  0.6000000000000014  0.5168152404997386   F   F   F
  0.0000000000000000  0.7999999999999972  0.5168152404997386   F   F   F
  0.2000000000000028  0.7999999999999972  0.5168152404997386   F   F   F
  0.3999999999999986  0.7999999999999972  0.5168152404997386   F   F   F
  0.6000000000000014  0.7999999999999972  0.5168152404997386   F   F   F
  0.7999999999999972  0.7999999999999972  0.5168152404997386   F   F   F
  0.0666666666666700  0.0666666666666700  0.5762329258570702   F   F   F
  0.2666666666666657  0.0666666666666700  0.5762329258570702   F   F   F
  0.4666666666666686  0.0666666666666700  0.5762329258570702   F   F   F
  0.6666666666666643  0.0666666666666700  0.5762329258570702   F   F   F
  0.8666666666666671  0.0666666666666700  0.5762329258570702   F   F   F
  0.0666666666666700  0.2666666666666657  0.5762329258570702   F   F   F
  0.2666666666666657  0.2666666666666657  0.5762329258570702   F   F   F
  0.4666666666666686  0.2666666666666657  0.5762329258570702   F   F   F
  0.6666666666666643  0.2666666666666657  0.5762329258570702   F   F   F
  0.8666666666666671  0.2666666666666657  0.5762329258570702   F   F   F
  0.0666666666666700  0.4666666666666686  0.5762329258570702   F   F   F
  0.2666666666666657  0.4666666666666686  0.5762329258570702   F   F   F
  0.4666666666666686  0.4666666666666686  0.5762329258570702   F   F   F
  0.6666666666666643  0.4666666666666686  0.5762329258570702   F   F   F
  0.8666666666666671  0.4666666666666686  0.5762329258570702   F   F   F
  0.0666666666666700  0.6666666666666643  0.5762329258570702   F   F   F
  0.2666666666666657  0.6666666666666643  0.5762329258570702   F   F   F
  0.4666666666666686  0.6666666666666643  0.5762329258570702   F   F   F
  0.6666666666666643  0.6666666666666643  0.5762329258570702   F   F   F
  0.8666666666666671  0.6666666666666643  0.5762329258570702   F   F   F
  0.0666666666666700  0.8666666666666671  0.5762329258570702   F   F   F
  0.2666666666666657  0.8666666666666671  0.5762329258570702   F   F   F
  0.4666666666666686  0.8666666666666671  0.5762329258570702   F   F   F
  0.6666666666666643  0.8666666666666671  0.5762329258570702   F   F   F
  0.8666666666666671  0.8666666666666671  0.5762329258570702   F   F   F
  0.9322706944489771  0.1346166067361173  0.6352337902441842   T   T   T
  0.1336629148980305  0.1339623418113355  0.6352379290201376   T   T   T
  0.3343226995501877  0.1295458104128647  0.6344956625123667   T   T   T
  0.5360880710610217  0.1302915772647182  0.6355690363957759   T   T   T
  0.7338290805288676  0.1325145503086645  0.6352614089168784   T   T   T
  0.9331146988264626  0.3331482544490423  0.6355530910642094   T   T   T
  0.1320550724290597  0.3328282192871866  0.6347965832754011   T   T   T
  0.3329515211806228  0.3287667544219695  0.6333066553140064   T   T   T
  0.5320509120028010  0.3302629313717439  0.6365669682758965   T   T   T
  0.7326355906812411  0.3342999281293642  0.6349525147322930   T   T   T
  0.9331214328841573  0.5336596374624724  0.6352794139602663   T   T   T
  0.1316200208562181  0.5332960212345297  0.6338290337056139   T   T   T
  0.3380857392886567  0.5244973129965099  0.6387342601734428   T   T   T
  0.5329214312394360  0.5342829252283456  0.6345711615542954   T   T   T
  0.7333235044030059  0.5338632195699662  0.6354791654578781   T   T   T
  0.9351501282013824  0.7330726639783318  0.6354602390775034   T   T   T
  0.1396468060207465  0.7248140568012185  0.6371555438198350   T   T   T
  0.3345552978242169  0.7268550718509178  0.6370280165285893   T   T   T
  0.5328450488426664  0.7329108709610972  0.6356977639973077   T   T   T
  0.7345489341343107  0.7329759864209273  0.6354493078506640   T   T   T
  0.9366831506568188  0.9314973484229736  0.6353355215593716   T   T   T
  0.1328541661186078  0.9346270960435473  0.6341685980173446   T   T   T
  0.3328115790260086  0.9308449095536103  0.6354327510415837   T   T   T
  0.5341283007184047  0.9307982630483309  0.6349523648817303   T   T   T
  0.7364936911805036  0.9310601333291126  0.6348807492986563   T   T   T
  0.9958254955251510  0.0073538053211022  0.6946298659994218   T   T   T
  0.1993644889317116  0.0065422741116464  0.6947522215203058   T   T   T
  0.4014878223873988 -0.0003790434931990  0.6950267592734626   T   T   T
  0.6032480766252327 -0.0034872742779140  0.6929345252801429   T   T   T
  0.8040694346524890 -0.0029313070779809  0.6947742823088662   T   T   T
 -0.0006931425250231  0.2035720496977429  0.6951925777785475   T   T   T
  0.2012813048392674  0.2015813266236432  0.6950610764700945   T   T   T
  0.3973041289509397  0.2016217624958243  0.6931634709692784   T   T   T
  0.6069892717777827  0.2002821038579497  0.6971865754230093   T   T   T
  0.7980994227204188  0.2041191394014570  0.6951695608690317   T   T   T
  0.0017563484592731  0.4013797862021627  0.6946526837279887   T   T   T
  0.2058665269019072  0.3964360050432479  0.6916244039100062   T   T   T
  0.3963265114045552  0.3724973435835293  0.6827408852888096   T   T   T
  0.5996885367116621  0.4016441403179725  0.6923146996206891   T   T   T
  0.7997086683316326  0.4027816234765001  0.6946337679953418   T   T   T
  0.0066604230780070  0.5981743058694333  0.6946181582572528   T   T   T
  0.2142623135834398  0.5804415876314446  0.6983291260611089   T   T   T
  0.4090877562560361  0.5944625569824020  0.6992730149119816   T   T   T
  0.6010485085861705  0.6017686894527515  0.6954422322538407   T   T   T
  0.8027298392148938  0.6010987460181693  0.6957617764179866   T   T   T
  0.0048777793794582  0.7974598263372461  0.6952203177360854   T   T   T
  0.1919502115045027  0.8171253910891291  0.6926765213229882   T   T   T
  0.3996191676692210  0.8004491307680175  0.6951427520049126   T   T   T
  0.6015997011830392  0.8000506190055855  0.6952568161584337   T   T   T
  0.8035794835769552  0.7988117179269534  0.6951819388254655   T   T   T
  0.4746576474226494  0.2634856702429393  0.7254603350697771   T   T   T
  0.4657035415517973  0.2097124234313119  0.7436386421225895   T   T   T
  0.4496349922830977  0.3389042060042424  0.7394928993903932   T   T   T
  0.3037611922523463  0.5985295277421149  0.7339190920732136   T   T   T
  0.3424977887786000  0.5253191885419706  0.7496277007807847   T   T   T
  0.2655910289101395  0.6692256961739946  0.7506470022350543   T   T   T
 
  0.00000000E+00  0.00000000E+00  0.00000000E+00
  0.00000000E+00  0.00000000E+00  0.00000000E+00
  0.00000000E+00  0.00000000E+00  0.00000000E+00
  0.00000000E+00  0.00000000E+00  0.00000000E+00
  0.00000000E+00  0.00000000E+00  0.00000000E+00
  0.00000000E+00  0.00000000E+00  0.00000000E+00
  0.00000000E+00  0.00000000E+00  0.00000000E+00
  0.00000000E+00  0.00000000E+00  0.00000000E+00
  0.00000000E+00  0.00000000E+00  0.00000000E+00
  0.00000000E+00  0.00000000E+00  0.00000000E+00
  0.00000000E+00  0.00000000E+00  0.00000000E+00
  0.00000000E+00  0.00000000E+00  0.00000000E+00
  0.00000000E+00  0.00000000E+00  0.00000000E+00
  0.00000000E+00  0.00000000E+00  0.00000000E+00
  0.00000000E+00  0.00000000E+00  0.00000000E+00
  0.00000000E+00  0.00000000E+00  0.00000000E+00
  0.00000000E+00  0.00000000E+00  0.00000000E+00
  0.00000000E+00  0.00000000E+00  0.00000000E+00
  0.00000000E+00  0.00000000E+00  0.00000000E+00
  0.00000000E+00  0.00000000E+00  0.00000000E+00
  0.00000000E+00  0.00000000E+00  0.00000000E+00
  0.00000000E+00  0.00000000E+00  0.00000000E+00
  0.00000000E+00  0.00000000E+00  0.00000000E+00
  0.00000000E+00  0.00000000E+00  0.00000000E+00
  0.00000000E+00  0.00000000E+00  0.00000000E+00
  0.00000000E+00  0.00000000E+00  0.00000000E+00
  0.00000000E+00  0.00000000E+00  0.00000000E+00
  0.00000000E+00  0.00000000E+00  0.00000000E+00
  0.00000000E+00  0.00000000E+00  0.00000000E+00
  0.00000000E+00  0.00000000E+00  0.00000000E+00
  0.00000000E+00  0.00000000E+00  0.00000000E+00
  0.00000000E+00  0.00000000E+00  0.00000000E+00
  0.00000000E+00  0.00000000E+00  0.00000000E+00
  0.00000000E+00  0.00000000E+00  0.00000000E+00
  0.00000000E+00  0.00000000E+00  0.00000000E+00
  0.00000000E+00  0.00000000E+00  0.00000000E+00
  0.00000000E+00  0.00000000E+00  0.00000000E+00
  0.00000000E+00  0.00000000E+00  0.00000000E+00
  0.00000000E+00  0.00000000E+00  0.00000000E+00
  0.00000000E+00  0.00000000E+00  0.00000000E+00
  0.00000000E+00  0.00000000E+00  0.00000000E+00
  0.00000000E+00  0.00000000E+00  0.00000000E+00
  0.00000000E+00  0.00000000E+00  0.00000000E+00
  0.00000000E+00  0.00000000E+00  0.00000000E+00
  0.00000000E+00  0.00000000E+00  0.00000000E+00
  0.00000000E+00  0.00000000E+00  0.00000000E+00
  0.00000000E+00  0.00000000E+00  0.00000000E+00
  0.00000000E+00  0.00000000E+00  0.00000000E+00
  0.00000000E+00  0.00000000E+00  0.00000000E+00
  0.00000000E+00  0.00000000E+00  0.00000000E+00
  0.00000000E+00  0.00000000E+00  0.00000000E+00
  0.00000000E+00  0.00000000E+00  0.00000000E+00
  0.00000000E+00  0.00000000E+00  0.00000000E+00
  0.00000000E+00  0.00000000E+00  0.00000000E+00
  0.00000000E+00  0.00000000E+00  0.00000000E+00
  0.00000000E+00  0.00000000E+00  0.00000000E+00
  0.00000000E+00  0.00000000E+00  0.00000000E+00
  0.00000000E+00  0.00000000E+00  0.00000000E+00
  0.00000000E+00  0.00000000E+00  0.00000000E+00
  0.00000000E+00  0.00000000E+00  0.00000000E+00
  0.00000000E+00  0.00000000E+00  0.00000000E+00
  0.00000000E+00  0.00000000E+00  0.00000000E+00
  0.00000000E+00  0.00000000E+00  0.00000000E+00
  0.00000000E+00  0.00000000E+00  0.00000000E+00
  0.00000000E+00  0.00000000E+00  0.00000000E+00
  0.00000000E+00  0.00000000E+00  0.00000000E+00
  0.00000000E+00  0.00000000E+00  0.00000000E+00
  0.00000000E+00  0.00000000E+00  0.00000000E+00
  0.00000000E+00  0.00000000E+00  0.00000000E+00
  0.00000000E+00  0.00000000E+00  0.00000000E+00
  0.00000000E+00  0.00000000E+00  0.00000000E+00
  0.00000000E+00  0.00000000E+00  0.00000000E+00
  0.00000000E+00  0.00000000E+00  0.00000000E+00
  0.00000000E+00  0.00000000E+00  0.00000000E+00
  0.00000000E+00  0.00000000E+00  0.00000000E+00
  0.00000000E+00  0.00000000E+00  0.00000000E+00
  0.00000000E+00  0.00000000E+00  0.00000000E+00
  0.00000000E+00  0.00000000E+00  0.00000000E+00
  0.00000000E+00  0.00000000E+00  0.00000000E+00
  0.00000000E+00  0.00000000E+00  0.00000000E+00
  0.00000000E+00  0.00000000E+00  0.00000000E+00
  0.00000000E+00  0.00000000E+00  0.00000000E+00
  0.00000000E+00  0.00000000E+00  0.00000000E+00
  0.00000000E+00  0.00000000E+00  0.00000000E+00
  0.00000000E+00  0.00000000E+00  0.00000000E+00
  0.00000000E+00  0.00000000E+00  0.00000000E+00
  0.00000000E+00  0.00000000E+00  0.00000000E+00
  0.00000000E+00  0.00000000E+00  0.00000000E+00
  0.00000000E+00  0.00000000E+00  0.00000000E+00
  0.00000000E+00  0.00000000E+00  0.00000000E+00
  0.00000000E+00  0.00000000E+00  0.00000000E+00
  0.00000000E+00  0.00000000E+00  0.00000000E+00
  0.00000000E+00  0.00000000E+00  0.00000000E+00
  0.00000000E+00  0.00000000E+00  0.00000000E+00
  0.00000000E+00  0.00000000E+00  0.00000000E+00
  0.00000000E+00  0.00000000E+00  0.00000000E+00
  0.00000000E+00  0.00000000E+00  0.00000000E+00
  0.00000000E+00  0.00000000E+00  0.00000000E+00
  0.00000000E+00  0.00000000E+00  0.00000000E+00
  0.00000000E+00  0.00000000E+00  0.00000000E+00
  0.00000000E+00  0.00000000E+00  0.00000000E+00
  0.00000000E+00  0.00000000E+00  0.00000000E+00
  0.00000000E+00  0.00000000E+00  0.00000000E+00
  0.00000000E+00  0.00000000E+00  0.00000000E+00
  0.00000000E+00  0.00000000E+00  0.00000000E+00
  0.00000000E+00  0.00000000E+00  0.00000000E+00
  0.00000000E+00  0.00000000E+00  0.00000000E+00
  0.00000000E+00  0.00000000E+00  0.00000000E+00
  0.00000000E+00  0.00000000E+00  0.00000000E+00
  0.00000000E+00  0.00000000E+00  0.00000000E+00
  0.00000000E+00  0.00000000E+00  0.00000000E+00
  0.00000000E+00  0.00000000E+00  0.00000000E+00
  0.00000000E+00  0.00000000E+00  0.00000000E+00
  0.00000000E+00  0.00000000E+00  0.00000000E+00
  0.00000000E+00  0.00000000E+00  0.00000000E+00
  0.00000000E+00  0.00000000E+00  0.00000000E+00
  0.00000000E+00  0.00000000E+00  0.00000000E+00
  0.00000000E+00  0.00000000E+00  0.00000000E+00
  0.00000000E+00  0.00000000E+00  0.00000000E+00
  0.00000000E+00  0.00000000E+00  0.00000000E+00
  0.00000000E+00  0.00000000E+00  0.00000000E+00
  0.00000000E+00  0.00000000E+00  0.00000000E+00
  0.00000000E+00  0.00000000E+00  0.00000000E+00
  0.00000000E+00  0.00000000E+00  0.00000000E+00
  0.00000000E+00  0.00000000E+00  0.00000000E+00
  0.00000000E+00  0.00000000E+00  0.00000000E+00
  0.00000000E+00  0.00000000E+00  0.00000000E+00
  0.00000000E+00  0.00000000E+00  0.00000000E+00
  0.00000000E+00  0.00000000E+00  0.00000000E+00
  0.00000000E+00  0.00000000E+00  0.00000000E+00
  0.00000000E+00  0.00000000E+00  0.00000000E+00
