Al Fe  C  O  H 
 1.0000000000000000
    14.3189123190275875    0.0000000000000000    0.0000000000000000
     7.1594561595137938   12.4005418228398376    0.0000000000000000
     0.0000000000000000    0.0000000000000000   45.3530743608719362
 Al  Fe  C   O   H  
 122   3   1   1   1
Selective dynamics
Cartesian
 14.9299712063091032  1.7905269185702453 17.8755754587363569   F   F   F
  3.4748413510870741  1.7905269185702453 17.8755754587363569   F   F   F
  6.3386238148926317  1.7905269185702453 17.8755754587363569   F   F   F
  9.2024062786980885  1.7905269185702453 17.8755754587363569   F   F   F
 12.0661887425036465  1.7905269185702453 17.8755754587363569   F   F   F
 16.3618624382118831  4.2706352831382475 17.8755754587363569   F   F   F
  4.9067325829898536  4.2706352831382475 17.8755754587363569   F   F   F
  7.7705150467954107  4.2706352831382475 17.8755754587363569   F   F   F
 10.6342975106008666  4.2706352831382475 17.8755754587363569   F   F   F
 13.4980799744064264  4.2706352831382475 17.8755754587363569   F   F   F
 17.7937536701146115  6.7507436477061624 17.8755754587363569   F   F   F
  6.3386238148925811  6.7507436477061624 17.8755754587363569   F   F   F
  9.2024062786981382  6.7507436477061624 17.8755754587363569   F   F   F
 12.0661887425035950  6.7507436477061624 17.8755754587363569   F   F   F
 14.9299712063091530  6.7507436477061624 17.8755754587363569   F   F   F
 19.2256449020173896  9.2308520122741644 17.8755754587363569   F   F   F
  7.7705150467953601  9.2308520122741644 17.8755754587363569   F   F   F
 10.6342975106009181  9.2308520122741644 17.8755754587363569   F   F   F
 13.4980799744063749  9.2308520122741644 17.8755754587363569   F   F   F
 16.3618624382119329  9.2308520122741644 17.8755754587363569   F   F   F
 20.6575361339201677 11.7109603768421682 17.8755754587363569   F   F   F
  9.2024062786981400 11.7109603768421682 17.8755754587363569   F   F   F
 12.0661887425036980 11.7109603768421682 17.8755754587363569   F   F   F
 14.9299712063091548 11.7109603768421682 17.8755754587363569   F   F   F
 17.7937536701147110 11.7109603768421682 17.8755754587363569   F   F   F
  0.6110588872815661  0.1371213421916055 20.2138440489548543   F   F   F
  3.4748413510871234  0.1371213421916055 20.2138440489548543   F   F   F
  6.3386238148925802  0.1371213421916055 20.2138440489548543   F   F   F
  9.2024062786981400  0.1371213421916055 20.2138440489548543   F   F   F
 12.0661887425035967  0.1371213421916055 20.2138440489548543   F   F   F
  2.0429501191843458  2.6172297067596091 20.2138440489548543   F   F   F
  4.9067325829899033  2.6172297067596091 20.2138440489548543   F   F   F
  7.7705150467953601  2.6172297067596091 20.2138440489548543   F   F   F
 10.6342975106009199  2.6172297067596091 20.2138440489548543   F   F   F
 13.4980799744063766  2.6172297067596091 20.2138440489548543   F   F   F
  3.4748413510870737  5.0973380713275231 20.2138440489548543   F   F   F
  6.3386238148926308  5.0973380713275231 20.2138440489548543   F   F   F
  9.2024062786980885  5.0973380713275231 20.2138440489548543   F   F   F
 12.0661887425036465  5.0973380713275231 20.2138440489548543   F   F   F
 14.9299712063091032  5.0973380713275231 20.2138440489548543   F   F   F
  4.9067325829898518  7.5774464358955260 20.2138440489548543   F   F   F
  7.7705150467954098  7.5774464358955260 20.2138440489548543   F   F   F
 10.6342975106008666  7.5774464358955260 20.2138440489548543   F   F   F
 13.4980799744064264  7.5774464358955260 20.2138440489548543   F   F   F
 16.3618624382118831  7.5774464358955260 20.2138440489548543   F   F   F
  6.3386238148925802 10.0575548004634410 20.2138440489548543   F   F   F
  9.2024062786981382 10.0575548004634410 20.2138440489548543   F   F   F
 12.0661887425035950 10.0575548004634410 20.2138440489548543   F   F   F
 14.9299712063091548 10.0575548004634410 20.2138440489548543   F   F   F
 17.7937536701146115 10.0575548004634410 20.2138440489548543   F   F   F
  2.0429501191843964  0.9638241303809693 22.5521126391727051   F   F   F
  4.9067325829898527  0.9638241303809693 22.5521126391727051   F   F   F
  7.7705150467954107  0.9638241303809693 22.5521126391727051   F   F   F
 10.6342975106008666  0.9638241303809693 22.5521126391727051   F   F   F
 13.4980799744064246  0.9638241303809693 22.5521126391727051   F   F   F
  3.4748413510871243  3.4439324949488834 22.5521126391727051   F   F   F
  6.3386238148925802  3.4439324949488834 22.5521126391727051   F   F   F
  9.2024062786981382  3.4439324949488834 22.5521126391727051   F   F   F
 12.0661887425035950  3.4439324949488834 22.5521126391727051   F   F   F
 14.9299712063091530  3.4439324949488834 22.5521126391727051   F   F   F
  4.9067325829899033  5.9240408595168867 22.5521126391727051   F   F   F
  7.7705150467953601  5.9240408595168867 22.5521126391727051   F   F   F
 10.6342975106009181  5.9240408595168867 22.5521126391727051   F   F   F
 13.4980799744063731  5.9240408595168867 22.5521126391727051   F   F   F
 16.3618624382119329  5.9240408595168867 22.5521126391727051   F   F   F
  6.3386238148926317  8.4041492240848008 22.5521126391727051   F   F   F
  9.2024062786980885  8.4041492240848008 22.5521126391727051   F   F   F
 12.0661887425036465  8.4041492240848008 22.5521126391727051   F   F   F
 14.9299712063091015  8.4041492240848008 22.5521126391727051   F   F   F
 17.7937536701146612  8.4041492240848008 22.5521126391727051   F   F   F
  7.7705150467954107 10.8842575886528046 22.5521126391727051   F   F   F
 10.6342975106008666 10.8842575886528046 22.5521126391727051   F   F   F
 13.4980799744064264 10.8842575886528046 22.5521126391727051   F   F   F
 16.3618624382118796 10.8842575886528046 22.5521126391727051   F   F   F
 19.2256449020174394 10.8842575886528046 22.5521126391727051   F   F   F
 14.9323224871812545  1.7771340944574485 24.8875271993139684   F   F   F
  3.4976357073031261  1.7927092756481218 24.8829287625003346   F   F   F
  6.3658113008585895  1.7792912087567048 24.8575599862353442   F   F   F
  9.1742773707066227  1.7807976135883188 24.8622538862413762   F   F   F
 12.0341645690614971  1.8080696903030506 24.8906931935657596   F   F   F
 16.3852909615700639  4.2861069280680724 24.8795881142169257   F   F   F
  4.9187448535496543  4.2743773996370944 24.8308482120558658   F   F   F
  7.7711860244533195  4.3040434904549763 24.8757105701356274   F   F   F
 10.5812370768629300  4.3041586756255459 24.8650170372682062   F   F   F
 13.4916152613854798  4.2759989878942166 24.8669629396877099   F   F   F
 17.7987289084514408  6.7813425633806448 24.8545765811989590   F   F   F
  6.3733245883195124  6.7224012930403383 24.8696304661823042   F   F   F
  9.1880884954885094  6.7714564727978370 24.9325505670096490   F   F   F
 12.0539635986179636  6.7768171293455586 24.8597794214825072   F   F   F
 14.9275239647078912  6.7556550875615047 24.8829179636740143   F   F   F
 19.1962628335384515  9.2162068501863619 24.8478975251536056   F   F   F
  7.7696073650953110  9.2086732000717078 24.8135776033297333   F   F   F
 10.6767637090277105  9.2353240013752984 24.8304298429166543   F   F   F
 13.5094282460381603  9.2306361184576282 24.8978498918654587   F   F   F
 16.3468082440321645  9.2369815820889887 24.8840686305433962   F   F   F
 20.6441775640771361 11.6805024318455217 24.8820167721176233   F   F   F
  9.2066710704665162 11.6796906512370686 24.8833314661514251   F   F   F
 12.0778182330282764 11.7091696356869743 24.8784651474001990   F   F   F
 14.9284590132591184 11.6930513008454149 24.8828252333802205   F   F   F
 17.7837886675310628 11.7105879474729093 24.8776662042713177   F   F   F
  0.6141778751601864  0.0532346228388990 27.2216613934796499   F   F   F
  3.4797377519774408  0.1220337299920157 27.2329107530140107   F   F   F
  6.3497952192560634  0.1952163964845376 27.2270090789739285   F   F   F
  9.1925818706586142  0.1907939332103998 27.2277658144089649   F   F   F
 12.0638212888192200  0.1248467426227008 27.2315141521659179   F   F   F
  2.0814603501920312  2.6072277501393240 27.2210638540002314   F   F   F
  4.9951300303203805  2.7044426097139191 27.1733061269293792   F   F   F
  7.7813354184564254  2.8888253454056270 27.1889990865217612   F   F   F
 10.5548920317388450  2.7122734021542549 27.1969230903338399   F   F   F
 13.5033982603611094  2.5962615673161054 27.2179158816039255   F   F   F
  3.6073091909600281  5.1176891925411114 27.1750706208213586   F   F   F
 12.0619264590007038  5.0462309801445606 27.1203512157407900   F   F   F
 14.9912665918133694  5.0889163727697850 27.2268690718431863   F   F   F
  5.1498972063121293  7.4361150591991620 27.1602902081168942   F   F   F
 10.4822852419093238  7.5046445758531544 27.2492376770566693   T   T   T
 13.4448617410487223  7.5314177392492656 27.2387104808262208   F   F   F
 16.4370304288642082  7.5603411995872936 27.2231618239400923   F   F   F
  6.3953468705961214  9.8861844722443024 27.1682249081932738   F   F   F
  9.1280688920230695  9.8988353807117768 27.1359836998003914   F   F   F
 12.0057832732720016 10.0143840279144367 27.2313454652579630   F   F   F
 14.9261855383440984 10.0513369461976634 27.2722880560913978   F   F   F
 17.8514801378364361 10.0169257631829058 27.2178320704164243   F   F   F
  6.2501415624067436  5.0310271233041375 26.7992154382659749   T   T   T
  9.1901420460689902  5.0998804535692717 26.8880879749199906   T   T   T
  7.7318992887017917  7.6209667525964884 26.7995541093062961   T   T   T
  8.3357051979346366  6.5434094349207124 28.2505125640427828   T   T   T
  9.6689737234003132  6.4858134879124991 28.5984923149233587   T   T   T
  7.7260621407550794  6.1525302775701745 29.0769467979619023   T   T   T
