Al  O  H                                
   1.00000000000000     
    14.3189123190275875    0.0000000000000000    0.0000000000000000
     7.1594561595137938   12.4005418228398376    0.0000000000000000
   0.0000000000   0.0000000000   32.1914446211
   Al   O    H 
   125     1     1
Selective dynamics
Direct
0.9333333333333300   0.1333333333333329   0.3106415421   F   F   F
0.1333333333333329   0.1333333333333329   0.3106415421   F   F   F
0.3333333333333357   0.1333333333333329   0.3106415421   F   F   F
0.5333333333333314   0.1333333333333329   0.3106415421   F   F   F
0.7333333333333343   0.1333333333333329   0.3106415421   F   F   F
0.9333333333333300   0.3333333333333357   0.3106415421   F   F   F
0.1333333333333329   0.3333333333333357   0.3106415421   F   F   F
0.3333333333333357   0.3333333333333357   0.3106415421   F   F   F
0.5333333333333314   0.3333333333333357   0.3106415421   F   F   F
0.7333333333333343   0.3333333333333357   0.3106415421   F   F   F
0.9333333333333300   0.5333333333333314   0.3106415421   F   F   F
0.1333333333333329   0.5333333333333314   0.3106415421   F   F   F
0.3333333333333357   0.5333333333333314   0.3106415421   F   F   F
0.5333333333333314   0.5333333333333314   0.3106415421   F   F   F
0.7333333333333343   0.5333333333333314   0.3106415421   F   F   F
0.9333333333333300   0.7333333333333343   0.3106415421   F   F   F
0.1333333333333329   0.7333333333333343   0.3106415421   F   F   F
0.3333333333333357   0.7333333333333343   0.3106415421   F   F   F
0.5333333333333314   0.7333333333333343   0.3106415421   F   F   F
0.7333333333333343   0.7333333333333343   0.3106415421   F   F   F
0.9333333333333300   0.9333333333333371   0.3106415421   F   F   F
0.1333333333333329   0.9333333333333371   0.3106415421   F   F   F
0.3333333333333357   0.9333333333333371   0.3106415421   F   F   F
0.5333333333333314   0.9333333333333371   0.3106415421   F   F   F
0.7333333333333343   0.9333333333333371   0.3106415421   F   F   F
0.0000000000000000   0.0000000000000000   0.3832778782   F   F   F
0.2000000000000028   0.0000000000000000   0.3832778782   F   F   F
0.3999999999999986   0.0000000000000000   0.3832778782   F   F   F
0.6000000000000014   0.0000000000000000   0.3832778782   F   F   F
0.7999999999999972   0.0000000000000000   0.3832778782   F   F   F
0.0000000000000000   0.2000000000000028   0.3832778782   F   F   F
0.2000000000000028   0.2000000000000028   0.3832778782   F   F   F
0.3999999999999986   0.2000000000000028   0.3832778782   F   F   F
0.6000000000000014   0.2000000000000028   0.3832778782   F   F   F
0.7999999999999972   0.2000000000000028   0.3832778782   F   F   F
0.0000000000000000   0.3999999999999986   0.3832778782   F   F   F
0.2000000000000028   0.3999999999999986   0.3832778782   F   F   F
0.3999999999999986   0.3999999999999986   0.3832778782   F   F   F
0.6000000000000014   0.3999999999999986   0.3832778782   F   F   F
0.7999999999999972   0.3999999999999986   0.3832778782   F   F   F
0.0000000000000000   0.6000000000000014   0.3832778782   F   F   F
0.2000000000000028   0.6000000000000014   0.3832778782   F   F   F
0.3999999999999986   0.6000000000000014   0.3832778782   F   F   F
0.6000000000000014   0.6000000000000014   0.3832778782   F   F   F
0.7999999999999972   0.6000000000000014   0.3832778782   F   F   F
0.0000000000000000   0.7999999999999972   0.3832778782   F   F   F
0.2000000000000028   0.7999999999999972   0.3832778782   F   F   F
0.3999999999999986   0.7999999999999972   0.3832778782   F   F   F
0.6000000000000014   0.7999999999999972   0.3832778782   F   F   F
0.7999999999999972   0.7999999999999972   0.3832778782   F   F   F
0.0666666666666700   0.0666666666666700   0.4559142143   F   F   F
0.2666666666666657   0.0666666666666700   0.4559142143   F   F   F
0.4666666666666686   0.0666666666666700   0.4559142143   F   F   F
0.6666666666666643   0.0666666666666700   0.4559142143   F   F   F
0.8666666666666671   0.0666666666666700   0.4559142143   F   F   F
0.0666666666666700   0.2666666666666657   0.4559142143   F   F   F
0.2666666666666657   0.2666666666666657   0.4559142143   F   F   F
0.4666666666666686   0.2666666666666657   0.4559142143   F   F   F
0.6666666666666643   0.2666666666666657   0.4559142143   F   F   F
0.8666666666666671   0.2666666666666657   0.4559142143   F   F   F
0.0666666666666700   0.4666666666666686   0.4559142143   F   F   F
0.2666666666666657   0.4666666666666686   0.4559142143   F   F   F
0.4666666666666686   0.4666666666666686   0.4559142143   F   F   F
0.6666666666666643   0.4666666666666686   0.4559142143   F   F   F
0.8666666666666671   0.4666666666666686   0.4559142143   F   F   F
0.0666666666666700   0.6666666666666643   0.4559142143   F   F   F
0.2666666666666657   0.6666666666666643   0.4559142143   F   F   F
0.4666666666666686   0.6666666666666643   0.4559142143   F   F   F
0.6666666666666643   0.6666666666666643   0.4559142143   F   F   F
0.8666666666666671   0.6666666666666643   0.4559142143   F   F   F
0.0666666666666700   0.8666666666666671   0.4559142143   F   F   F
0.2666666666666657   0.8666666666666671   0.4559142143   F   F   F
0.4666666666666686   0.8666666666666671   0.4559142143   F   F   F
0.6666666666666643   0.8666666666666671   0.4559142143   F   F   F
0.8666666666666671   0.8666666666666671   0.4559142143   F   F   F
0.9335092170680356   0.1332842178297097   0.5284176273   T   T   T
0.1333414982784792   0.1333331825028629   0.5284311757   T   T   T
0.3332469302445280   0.1336470486503648   0.5283329102   T   T   T
0.5337526619500187   0.1326167726208773   0.5282266922   T   T   T
0.7334013086006708   0.1334524120776469   0.5282555300   T   T   T
0.9334693125687435   0.3332350064142749   0.5283886111   T   T   T
0.1338354812520156   0.3331894800195318   0.5283183389   T   T   T
0.3345082569606524   0.3343423108568598   0.5292345889   T   T   T
0.5311976409915388   0.3342746282784467   0.5292984410   T   T   T
0.7332927437944416   0.3331662961340106   0.5282678769   T   T   T
0.9333310177253951   0.5332861068635488   0.5283522080   T   T   T
0.1328740087659278   0.5335545323108783   0.5282129235   T   T   T
0.3343153522871154   0.5311653808782251   0.5291170392   T   T   T
0.5336318841590095   0.5335166992310479   0.5281710231   T   T   T
0.7334962019563963   0.5332993303675111   0.5283507939   T   T   T
0.9333562830010455   0.7333620556455812   0.5283541134   T   T   T
0.1336255291738767   0.7331434800411520   0.5282800495   T   T   T
0.3332214963538819   0.7331586052655314   0.5282756068   T   T   T
0.5333005939520679   0.7333862506423902   0.5283566357   T   T   T
0.7333588514265484   0.7332654130948405   0.5284045806   T   T   T
0.9334945950042568   0.9333182425666211   0.5283944487   T   T   T
0.1333034836136097   0.9334420904045337   0.5284008175   T   T   T
0.3332480349959454   0.9333700995227313   0.5283881598   T   T   T
0.5333480266967422   0.9332064505890285   0.5283545779   T   T   T
0.7335275834598740   0.9331410668062325   0.5283529929   T   T   T
0.0001532682869802   -0.0001182912083233   0.6014401391   T   T   T
0.2002239911050614   -0.0001649065141438   0.6014323398   T   T   T
0.4002204957984629   -0.0000855287336930   0.6014609537   T   T   T
0.6006498124484690   -0.0011402387057854   0.6014076177   T   T   T
0.8003008494360061   -0.0003040015155372   0.6014525331   T   T   T
0.0001016388852957   0.2001195451964809   0.6014488297   T   T   T
0.1999267532357379   0.1996604200824914   0.6014122046   T   T   T
0.4009146271537183   0.1988575167576158   0.6006869042   T   T   T
0.6012796141241721   0.1981725886158075   0.6005754090   T   T   T
0.8006075432384715   0.1997473680880518   0.6014354809   T   T   T
0.0002310243808558   0.4000978396343750   0.6014617433   T   T   T
0.1993541903698414   0.4003891332318916   0.6007036699   T   T   T
0.4007982027794972   0.3994564234141823   0.6162091077   T   T   T
0.6010152939049457   0.4004427335139906   0.6006405495   T   T   T
0.8000886673088693   0.4001581214393613   0.6014350916   T   T   T
-0.0004707102598233   0.6002121824103047   0.6013989418   T   T   T
0.1992043499234468   0.6004405535639907   0.6007090288   T   T   T
0.4007728153443155   0.6002523101082800   0.6006429518   T   T   T
0.6004386662905944   0.6003348035928708   0.6013804816   T   T   T
0.8000920180524311   0.6000683572169476   0.6014712998   T   T   T
0.0003142589189964   0.7996169392656549   0.6014478076   T   T   T
0.1999960519201980   0.8002680182728718   0.6014169255   T   T   T
0.4001869503283532   0.7997219778083817   0.6014460973   T   T   T
0.6001618088664934   0.7998385395029624   0.6014673390   T   T   T
0.8001904298148350   0.7997649846921207   0.6014625675   T   T   T
0.4055791006806410   0.4087173460915388   0.6704582632   T   T   T
0.3965660356969773   0.3616910528136665   0.6893584579   T   T   T
 
  0.00000000E+00  0.00000000E+00  0.00000000E+00
  0.00000000E+00  0.00000000E+00  0.00000000E+00
  0.00000000E+00  0.00000000E+00  0.00000000E+00
  0.00000000E+00  0.00000000E+00  0.00000000E+00
  0.00000000E+00  0.00000000E+00  0.00000000E+00
  0.00000000E+00  0.00000000E+00  0.00000000E+00
  0.00000000E+00  0.00000000E+00  0.00000000E+00
  0.00000000E+00  0.00000000E+00  0.00000000E+00
  0.00000000E+00  0.00000000E+00  0.00000000E+00
  0.00000000E+00  0.00000000E+00  0.00000000E+00
  0.00000000E+00  0.00000000E+00  0.00000000E+00
  0.00000000E+00  0.00000000E+00  0.00000000E+00
  0.00000000E+00  0.00000000E+00  0.00000000E+00
  0.00000000E+00  0.00000000E+00  0.00000000E+00
  0.00000000E+00  0.00000000E+00  0.00000000E+00
  0.00000000E+00  0.00000000E+00  0.00000000E+00
  0.00000000E+00  0.00000000E+00  0.00000000E+00
  0.00000000E+00  0.00000000E+00  0.00000000E+00
  0.00000000E+00  0.00000000E+00  0.00000000E+00
  0.00000000E+00  0.00000000E+00  0.00000000E+00
  0.00000000E+00  0.00000000E+00  0.00000000E+00
  0.00000000E+00  0.00000000E+00  0.00000000E+00
  0.00000000E+00  0.00000000E+00  0.00000000E+00
  0.00000000E+00  0.00000000E+00  0.00000000E+00
  0.00000000E+00  0.00000000E+00  0.00000000E+00
  0.00000000E+00  0.00000000E+00  0.00000000E+00
  0.00000000E+00  0.00000000E+00  0.00000000E+00
  0.00000000E+00  0.00000000E+00  0.00000000E+00
  0.00000000E+00  0.00000000E+00  0.00000000E+00
  0.00000000E+00  0.00000000E+00  0.00000000E+00
  0.00000000E+00  0.00000000E+00  0.00000000E+00
  0.00000000E+00  0.00000000E+00  0.00000000E+00
  0.00000000E+00  0.00000000E+00  0.00000000E+00
  0.00000000E+00  0.00000000E+00  0.00000000E+00
  0.00000000E+00  0.00000000E+00  0.00000000E+00
  0.00000000E+00  0.00000000E+00  0.00000000E+00
  0.00000000E+00  0.00000000E+00  0.00000000E+00
  0.00000000E+00  0.00000000E+00  0.00000000E+00
  0.00000000E+00  0.00000000E+00  0.00000000E+00
  0.00000000E+00  0.00000000E+00  0.00000000E+00
  0.00000000E+00  0.00000000E+00  0.00000000E+00
  0.00000000E+00  0.00000000E+00  0.00000000E+00
  0.00000000E+00  0.00000000E+00  0.00000000E+00
  0.00000000E+00  0.00000000E+00  0.00000000E+00
  0.00000000E+00  0.00000000E+00  0.00000000E+00
  0.00000000E+00  0.00000000E+00  0.00000000E+00
  0.00000000E+00  0.00000000E+00  0.00000000E+00
  0.00000000E+00  0.00000000E+00  0.00000000E+00
  0.00000000E+00  0.00000000E+00  0.00000000E+00
  0.00000000E+00  0.00000000E+00  0.00000000E+00
  0.00000000E+00  0.00000000E+00  0.00000000E+00
  0.00000000E+00  0.00000000E+00  0.00000000E+00
  0.00000000E+00  0.00000000E+00  0.00000000E+00
  0.00000000E+00  0.00000000E+00  0.00000000E+00
  0.00000000E+00  0.00000000E+00  0.00000000E+00
  0.00000000E+00  0.00000000E+00  0.00000000E+00
  0.00000000E+00  0.00000000E+00  0.00000000E+00
  0.00000000E+00  0.00000000E+00  0.00000000E+00
  0.00000000E+00  0.00000000E+00  0.00000000E+00
  0.00000000E+00  0.00000000E+00  0.00000000E+00
  0.00000000E+00  0.00000000E+00  0.00000000E+00
  0.00000000E+00  0.00000000E+00  0.00000000E+00
  0.00000000E+00  0.00000000E+00  0.00000000E+00
  0.00000000E+00  0.00000000E+00  0.00000000E+00
  0.00000000E+00  0.00000000E+00  0.00000000E+00
  0.00000000E+00  0.00000000E+00  0.00000000E+00
  0.00000000E+00  0.00000000E+00  0.00000000E+00
  0.00000000E+00  0.00000000E+00  0.00000000E+00
  0.00000000E+00  0.00000000E+00  0.00000000E+00
  0.00000000E+00  0.00000000E+00  0.00000000E+00
  0.00000000E+00  0.00000000E+00  0.00000000E+00
  0.00000000E+00  0.00000000E+00  0.00000000E+00
  0.00000000E+00  0.00000000E+00  0.00000000E+00
  0.00000000E+00  0.00000000E+00  0.00000000E+00
  0.00000000E+00  0.00000000E+00  0.00000000E+00
  0.00000000E+00  0.00000000E+00  0.00000000E+00
  0.00000000E+00  0.00000000E+00  0.00000000E+00
  0.00000000E+00  0.00000000E+00  0.00000000E+00
  0.00000000E+00  0.00000000E+00  0.00000000E+00
  0.00000000E+00  0.00000000E+00  0.00000000E+00
  0.00000000E+00  0.00000000E+00  0.00000000E+00
  0.00000000E+00  0.00000000E+00  0.00000000E+00
  0.00000000E+00  0.00000000E+00  0.00000000E+00
  0.00000000E+00  0.00000000E+00  0.00000000E+00
  0.00000000E+00  0.00000000E+00  0.00000000E+00
  0.00000000E+00  0.00000000E+00  0.00000000E+00
  0.00000000E+00  0.00000000E+00  0.00000000E+00
  0.00000000E+00  0.00000000E+00  0.00000000E+00
  0.00000000E+00  0.00000000E+00  0.00000000E+00
  0.00000000E+00  0.00000000E+00  0.00000000E+00
  0.00000000E+00  0.00000000E+00  0.00000000E+00
  0.00000000E+00  0.00000000E+00  0.00000000E+00
  0.00000000E+00  0.00000000E+00  0.00000000E+00
  0.00000000E+00  0.00000000E+00  0.00000000E+00
  0.00000000E+00  0.00000000E+00  0.00000000E+00
  0.00000000E+00  0.00000000E+00  0.00000000E+00
  0.00000000E+00  0.00000000E+00  0.00000000E+00
  0.00000000E+00  0.00000000E+00  0.00000000E+00
  0.00000000E+00  0.00000000E+00  0.00000000E+00
  0.00000000E+00  0.00000000E+00  0.00000000E+00
  0.00000000E+00  0.00000000E+00  0.00000000E+00
  0.00000000E+00  0.00000000E+00  0.00000000E+00
  0.00000000E+00  0.00000000E+00  0.00000000E+00
  0.00000000E+00  0.00000000E+00  0.00000000E+00
  0.00000000E+00  0.00000000E+00  0.00000000E+00
  0.00000000E+00  0.00000000E+00  0.00000000E+00
  0.00000000E+00  0.00000000E+00  0.00000000E+00
  0.00000000E+00  0.00000000E+00  0.00000000E+00
  0.00000000E+00  0.00000000E+00  0.00000000E+00
  0.00000000E+00  0.00000000E+00  0.00000000E+00
  0.00000000E+00  0.00000000E+00  0.00000000E+00
  0.00000000E+00  0.00000000E+00  0.00000000E+00
  0.00000000E+00  0.00000000E+00  0.00000000E+00
  0.00000000E+00  0.00000000E+00  0.00000000E+00
  0.00000000E+00  0.00000000E+00  0.00000000E+00
  0.00000000E+00  0.00000000E+00  0.00000000E+00
  0.00000000E+00  0.00000000E+00  0.00000000E+00
  0.00000000E+00  0.00000000E+00  0.00000000E+00
  0.00000000E+00  0.00000000E+00  0.00000000E+00
  0.00000000E+00  0.00000000E+00  0.00000000E+00
  0.00000000E+00  0.00000000E+00  0.00000000E+00
  0.00000000E+00  0.00000000E+00  0.00000000E+00
  0.00000000E+00  0.00000000E+00  0.00000000E+00
  0.00000000E+00  0.00000000E+00  0.00000000E+00
  0.00000000E+00  0.00000000E+00  0.00000000E+00
  0.00000000E+00  0.00000000E+00  0.00000000E+00
  0.00000000E+00  0.00000000E+00  0.00000000E+00
