Al Fe  O  H                             
   1.00000000000000     
    14.3189123190275875    0.0000000000000000    0.0000000000000000
     7.1594561595137938   12.4005418228398376    0.0000000000000000
   0.0000000000   0.0000000000   31.3416710578
   Al   Fe   O    H 
   123     2     1     1
Selective dynamics
Direct
0.9693390752678823   0.1674961047020744   0.3190640340   F   F   F
0.1693390752678852   0.1674961047020744   0.3190640340   F   F   F
0.3693390752678880   0.1674961047020744   0.3190640340   F   F   F
0.5693390752678837   0.1674961047020744   0.3190640340   F   F   F
0.7693390752678866   0.1674961047020744   0.3190640340   F   F   F
0.9693390752678823   0.3674961047020773   0.3190640340   F   F   F
0.1693390752678852   0.3674961047020773   0.3190640340   F   F   F
0.3693390752678880   0.3674961047020773   0.3190640340   F   F   F
0.5693390752678837   0.3674961047020773   0.3190640340   F   F   F
0.7693390752678866   0.3674961047020773   0.3190640340   F   F   F
0.9693390752678823   0.5674961047020730   0.3190640340   F   F   F
0.1693390752678852   0.5674961047020730   0.3190640340   F   F   F
0.3693390752678880   0.5674961047020730   0.3190640340   F   F   F
0.5693390752678837   0.5674961047020730   0.3190640340   F   F   F
0.7693390752678866   0.5674961047020730   0.3190640340   F   F   F
0.9693390752678823   0.7674961047020759   0.3190640340   F   F   F
0.1693390752678852   0.7674961047020759   0.3190640340   F   F   F
0.3693390752678880   0.7674961047020759   0.3190640340   F   F   F
0.5693390752678837   0.7674961047020759   0.3190640340   F   F   F
0.7693390752678866   0.7674961047020759   0.3190640340   F   F   F
0.9693390752678823   0.9674961047020787   0.3190640340   F   F   F
0.1693390752678852   0.9674961047020787   0.3190640340   F   F   F
0.3693390752678880   0.9674961047020787   0.3190640340   F   F   F
0.5693390752678837   0.9674961047020787   0.3190640340   F   F   F
0.7693390752678866   0.9674961047020787   0.3190640340   F   F   F
0.0360057419345523   0.0341627713687416   0.3936697749   F   F   F
0.2360057419345551   0.0341627713687416   0.3936697749   F   F   F
0.4360057419345509   0.0341627713687416   0.3936697749   F   F   F
0.6360057419345537   0.0341627713687416   0.3936697749   F   F   F
0.8360057419345495   0.0341627713687416   0.3936697749   F   F   F
0.0360057419345523   0.2341627713687444   0.3936697749   F   F   F
0.2360057419345551   0.2341627713687444   0.3936697749   F   F   F
0.4360057419345509   0.2341627713687444   0.3936697749   F   F   F
0.6360057419345537   0.2341627713687444   0.3936697749   F   F   F
0.8360057419345495   0.2341627713687444   0.3936697749   F   F   F
0.0360057419345523   0.4341627713687402   0.3936697749   F   F   F
0.2360057419345551   0.4341627713687402   0.3936697749   F   F   F
0.4360057419345509   0.4341627713687402   0.3936697749   F   F   F
0.6360057419345537   0.4341627713687402   0.3936697749   F   F   F
0.8360057419345495   0.4341627713687402   0.3936697749   F   F   F
0.0360057419345523   0.6341627713687430   0.3936697749   F   F   F
0.2360057419345551   0.6341627713687430   0.3936697749   F   F   F
0.4360057419345509   0.6341627713687430   0.3936697749   F   F   F
0.6360057419345537   0.6341627713687430   0.3936697749   F   F   F
0.8360057419345495   0.6341627713687430   0.3936697749   F   F   F
0.0360057419345523   0.8341627713687387   0.3936697749   F   F   F
0.2360057419345551   0.8341627713687387   0.3936697749   F   F   F
0.4360057419345509   0.8341627713687387   0.3936697749   F   F   F
0.6360057419345537   0.8341627713687387   0.3936697749   F   F   F
0.8360057419345495   0.8341627713687387   0.3936697749   F   F   F
0.1026724086012223   0.1008294380354116   0.4682755158   F   F   F
0.3026724086012180   0.1008294380354116   0.4682755158   F   F   F
0.5026724086012209   0.1008294380354116   0.4682755158   F   F   F
0.7026724086012166   0.1008294380354116   0.4682755158   F   F   F
0.9026724086012194   0.1008294380354116   0.4682755158   F   F   F
0.1026724086012223   0.3008294380354073   0.4682755158   F   F   F
0.3026724086012180   0.3008294380354073   0.4682755158   F   F   F
0.5026724086012209   0.3008294380354073   0.4682755158   F   F   F
0.7026724086012166   0.3008294380354073   0.4682755158   F   F   F
0.9026724086012194   0.3008294380354073   0.4682755158   F   F   F
0.1026724086012223   0.5008294380354101   0.4682755158   F   F   F
0.3026724086012180   0.5008294380354101   0.4682755158   F   F   F
0.5026724086012209   0.5008294380354101   0.4682755158   F   F   F
0.7026724086012166   0.5008294380354101   0.4682755158   F   F   F
0.9026724086012194   0.5008294380354101   0.4682755158   F   F   F
0.1026724086012223   0.7008294380354059   0.4682755158   F   F   F
0.3026724086012180   0.7008294380354059   0.4682755158   F   F   F
0.5026724086012209   0.7008294380354059   0.4682755158   F   F   F
0.7026724086012166   0.7008294380354059   0.4682755158   F   F   F
0.9026724086012194   0.7008294380354059   0.4682755158   F   F   F
0.1026724086012223   0.9008294380354087   0.4682755158   F   F   F
0.3026724086012180   0.9008294380354087   0.4682755158   F   F   F
0.5026724086012209   0.9008294380354087   0.4682755158   F   F   F
0.7026724086012166   0.9008294380354087   0.4682755158   F   F   F
0.9026724086012194   0.9008294380354087   0.4682755158   F   F   F
0.9691638407883089   0.1678385224319542   0.5424346665   T   T   T
0.1708765359471886   0.1673774769113105   0.5425146567   T   T   T
0.3715692967505695   0.1660618044550860   0.5414747419   T   T   T
0.5684332155482775   0.1660795858406772   0.5414584613   T   T   T
0.7678293899773608   0.1674882932134098   0.5425409431   T   T   T
0.9696894326346281   0.3674728666274253   0.5424452040   T   T   T
0.1694372031971441   0.3674006161300295   0.5411037264   T   T   T
0.3672839345061981   0.3715523544908339   0.5439464461   T   T   T
0.5692827613236856   0.3674156296352951   0.5411147433   T   T   T
0.7690491437158733   0.3675193530182126   0.5424560691   T   T   T
0.9663732921922208   0.5684716003407227   0.5411510084   T   T   T
0.1695384148678650   0.5653675174797090   0.5432007388   T   T   T
0.3711478859253871   0.5653435033776536   0.5431787413   T   T   T
0.5712804750423501   0.5684424584247197   0.5411585372   T   T   T
0.7693427821565623   0.5675040667443473   0.5422098587   T   T   T
0.9694124652921764   0.7662092014695433   0.5426072721   T   T   T
0.1704642611858778   0.7652245698476895   0.5424111370   T   T   T
0.3705753737179755   0.7661700373008417   0.5425832476   T   T   T
0.5696969063205743   0.7682193673064185   0.5424890402   T   T   T
0.7682731787856348   0.7682896561033737   0.5425049498   T   T   T
0.9696404561725374   0.9668621423751372   0.5427484953   T   T   T
0.1697466234629096   0.9668300846892840   0.5427568044   T   T   T
0.3697902816061028   0.9664749362578666   0.5427531105   T   T   T
0.5700385725168486   0.9661407370350914   0.5425171770   T   T   T
0.7698997359655129   0.9665845418668293   0.5427470154   T   T   T
0.0368404932994479   0.0325144314058070   0.6174271303   T   T   T
0.2368707599698635   0.0350751206399569   0.6179193475   T   T   T
0.4347635175410027   0.0384989471182609   0.6171140281   T   T   T
0.6328234467361947   0.0385548216591544   0.6171115614   T   T   T
0.8341587137691304   0.0352574147116804   0.6178760824   T   T   T
0.0368170602922230   0.2344389727187779   0.6171777784   T   T   T
0.2377857020222620   0.2407418050014089   0.6159419028   T   T   T
0.4291859185408786   0.2476294664933144   0.6153451255   T   T   T
0.6275017621088135   0.2407744908039846   0.6159698728   T   T   T
0.8348294879057869   0.2346096665183237   0.6171704161   T   T   T
0.0414933473655560   0.4336300624195994   0.6157619989   T   T   T
0.6308961141574040   0.4336808722444667   0.6157578095   T   T   T
0.8364202915203179   0.4334842650369533   0.6178783469   T   T   T
0.0382691914836783   0.6288881233057040   0.6152869671   T   T   T
0.2388542319962304   0.6282100403920841   0.6175292076   T   T   T
0.4388371721087714   0.6289147017327794   0.6152544597   T   T   T
0.6365579122587391   0.6322803298638983   0.6170807325   T   T   T
0.8372084568026511   0.6323600506809103   0.6170933345   T   T   T
0.0380243589451264   0.8300118085747720   0.6178694169   T   T   T
0.2381495392409380   0.8299471888555651   0.6178625168   T   T   T
0.4363549744963689   0.8335652629354231   0.6180199277   T   T   T
0.6357336374468554   0.8348715158324725   0.6183602228   T   T   T
0.8363589665374053   0.8336738956018150   0.6180227183   T   T   T
0.2270240114864092   0.4280781530461137   0.6055826242   T   T   T
0.4509759946339467   0.4280452214760413   0.6055829996   T   T   T
0.3003643373696357   0.5055621305484034   0.6501764472   T   T   T
0.3038656685367427   0.4985272669789892   0.6809359660   T   T   T
 
  0.00000000E+00  0.00000000E+00  0.00000000E+00
  0.00000000E+00  0.00000000E+00  0.00000000E+00
  0.00000000E+00  0.00000000E+00  0.00000000E+00
  0.00000000E+00  0.00000000E+00  0.00000000E+00
  0.00000000E+00  0.00000000E+00  0.00000000E+00
  0.00000000E+00  0.00000000E+00  0.00000000E+00
  0.00000000E+00  0.00000000E+00  0.00000000E+00
  0.00000000E+00  0.00000000E+00  0.00000000E+00
  0.00000000E+00  0.00000000E+00  0.00000000E+00
  0.00000000E+00  0.00000000E+00  0.00000000E+00
  0.00000000E+00  0.00000000E+00  0.00000000E+00
  0.00000000E+00  0.00000000E+00  0.00000000E+00
  0.00000000E+00  0.00000000E+00  0.00000000E+00
  0.00000000E+00  0.00000000E+00  0.00000000E+00
  0.00000000E+00  0.00000000E+00  0.00000000E+00
  0.00000000E+00  0.00000000E+00  0.00000000E+00
  0.00000000E+00  0.00000000E+00  0.00000000E+00
  0.00000000E+00  0.00000000E+00  0.00000000E+00
  0.00000000E+00  0.00000000E+00  0.00000000E+00
  0.00000000E+00  0.00000000E+00  0.00000000E+00
  0.00000000E+00  0.00000000E+00  0.00000000E+00
  0.00000000E+00  0.00000000E+00  0.00000000E+00
  0.00000000E+00  0.00000000E+00  0.00000000E+00
  0.00000000E+00  0.00000000E+00  0.00000000E+00
  0.00000000E+00  0.00000000E+00  0.00000000E+00
  0.00000000E+00  0.00000000E+00  0.00000000E+00
  0.00000000E+00  0.00000000E+00  0.00000000E+00
  0.00000000E+00  0.00000000E+00  0.00000000E+00
  0.00000000E+00  0.00000000E+00  0.00000000E+00
  0.00000000E+00  0.00000000E+00  0.00000000E+00
  0.00000000E+00  0.00000000E+00  0.00000000E+00
  0.00000000E+00  0.00000000E+00  0.00000000E+00
  0.00000000E+00  0.00000000E+00  0.00000000E+00
  0.00000000E+00  0.00000000E+00  0.00000000E+00
  0.00000000E+00  0.00000000E+00  0.00000000E+00
  0.00000000E+00  0.00000000E+00  0.00000000E+00
  0.00000000E+00  0.00000000E+00  0.00000000E+00
  0.00000000E+00  0.00000000E+00  0.00000000E+00
  0.00000000E+00  0.00000000E+00  0.00000000E+00
  0.00000000E+00  0.00000000E+00  0.00000000E+00
  0.00000000E+00  0.00000000E+00  0.00000000E+00
  0.00000000E+00  0.00000000E+00  0.00000000E+00
  0.00000000E+00  0.00000000E+00  0.00000000E+00
  0.00000000E+00  0.00000000E+00  0.00000000E+00
  0.00000000E+00  0.00000000E+00  0.00000000E+00
  0.00000000E+00  0.00000000E+00  0.00000000E+00
  0.00000000E+00  0.00000000E+00  0.00000000E+00
  0.00000000E+00  0.00000000E+00  0.00000000E+00
  0.00000000E+00  0.00000000E+00  0.00000000E+00
  0.00000000E+00  0.00000000E+00  0.00000000E+00
  0.00000000E+00  0.00000000E+00  0.00000000E+00
  0.00000000E+00  0.00000000E+00  0.00000000E+00
  0.00000000E+00  0.00000000E+00  0.00000000E+00
  0.00000000E+00  0.00000000E+00  0.00000000E+00
  0.00000000E+00  0.00000000E+00  0.00000000E+00
  0.00000000E+00  0.00000000E+00  0.00000000E+00
  0.00000000E+00  0.00000000E+00  0.00000000E+00
  0.00000000E+00  0.00000000E+00  0.00000000E+00
  0.00000000E+00  0.00000000E+00  0.00000000E+00
  0.00000000E+00  0.00000000E+00  0.00000000E+00
  0.00000000E+00  0.00000000E+00  0.00000000E+00
  0.00000000E+00  0.00000000E+00  0.00000000E+00
  0.00000000E+00  0.00000000E+00  0.00000000E+00
  0.00000000E+00  0.00000000E+00  0.00000000E+00
  0.00000000E+00  0.00000000E+00  0.00000000E+00
  0.00000000E+00  0.00000000E+00  0.00000000E+00
  0.00000000E+00  0.00000000E+00  0.00000000E+00
  0.00000000E+00  0.00000000E+00  0.00000000E+00
  0.00000000E+00  0.00000000E+00  0.00000000E+00
  0.00000000E+00  0.00000000E+00  0.00000000E+00
  0.00000000E+00  0.00000000E+00  0.00000000E+00
  0.00000000E+00  0.00000000E+00  0.00000000E+00
  0.00000000E+00  0.00000000E+00  0.00000000E+00
  0.00000000E+00  0.00000000E+00  0.00000000E+00
  0.00000000E+00  0.00000000E+00  0.00000000E+00
  0.00000000E+00  0.00000000E+00  0.00000000E+00
  0.00000000E+00  0.00000000E+00  0.00000000E+00
  0.00000000E+00  0.00000000E+00  0.00000000E+00
  0.00000000E+00  0.00000000E+00  0.00000000E+00
  0.00000000E+00  0.00000000E+00  0.00000000E+00
  0.00000000E+00  0.00000000E+00  0.00000000E+00
  0.00000000E+00  0.00000000E+00  0.00000000E+00
  0.00000000E+00  0.00000000E+00  0.00000000E+00
  0.00000000E+00  0.00000000E+00  0.00000000E+00
  0.00000000E+00  0.00000000E+00  0.00000000E+00
  0.00000000E+00  0.00000000E+00  0.00000000E+00
  0.00000000E+00  0.00000000E+00  0.00000000E+00
  0.00000000E+00  0.00000000E+00  0.00000000E+00
  0.00000000E+00  0.00000000E+00  0.00000000E+00
  0.00000000E+00  0.00000000E+00  0.00000000E+00
  0.00000000E+00  0.00000000E+00  0.00000000E+00
  0.00000000E+00  0.00000000E+00  0.00000000E+00
  0.00000000E+00  0.00000000E+00  0.00000000E+00
  0.00000000E+00  0.00000000E+00  0.00000000E+00
  0.00000000E+00  0.00000000E+00  0.00000000E+00
  0.00000000E+00  0.00000000E+00  0.00000000E+00
  0.00000000E+00  0.00000000E+00  0.00000000E+00
  0.00000000E+00  0.00000000E+00  0.00000000E+00
  0.00000000E+00  0.00000000E+00  0.00000000E+00
  0.00000000E+00  0.00000000E+00  0.00000000E+00
  0.00000000E+00  0.00000000E+00  0.00000000E+00
  0.00000000E+00  0.00000000E+00  0.00000000E+00
  0.00000000E+00  0.00000000E+00  0.00000000E+00
  0.00000000E+00  0.00000000E+00  0.00000000E+00
  0.00000000E+00  0.00000000E+00  0.00000000E+00
  0.00000000E+00  0.00000000E+00  0.00000000E+00
  0.00000000E+00  0.00000000E+00  0.00000000E+00
  0.00000000E+00  0.00000000E+00  0.00000000E+00
  0.00000000E+00  0.00000000E+00  0.00000000E+00
  0.00000000E+00  0.00000000E+00  0.00000000E+00
  0.00000000E+00  0.00000000E+00  0.00000000E+00
  0.00000000E+00  0.00000000E+00  0.00000000E+00
  0.00000000E+00  0.00000000E+00  0.00000000E+00
  0.00000000E+00  0.00000000E+00  0.00000000E+00
  0.00000000E+00  0.00000000E+00  0.00000000E+00
  0.00000000E+00  0.00000000E+00  0.00000000E+00
  0.00000000E+00  0.00000000E+00  0.00000000E+00
  0.00000000E+00  0.00000000E+00  0.00000000E+00
  0.00000000E+00  0.00000000E+00  0.00000000E+00
  0.00000000E+00  0.00000000E+00  0.00000000E+00
  0.00000000E+00  0.00000000E+00  0.00000000E+00
  0.00000000E+00  0.00000000E+00  0.00000000E+00
  0.00000000E+00  0.00000000E+00  0.00000000E+00
  0.00000000E+00  0.00000000E+00  0.00000000E+00
  0.00000000E+00  0.00000000E+00  0.00000000E+00
  0.00000000E+00  0.00000000E+00  0.00000000E+00
  0.00000000E+00  0.00000000E+00  0.00000000E+00
