Al Fe  C  O  H                          
   1.00000000000000     
    14.3189123190275875    0.0000000000000000    0.0000000000000000
     7.1594561595137938   12.4005418228398376    0.0000000000000000
   0.0000000000   0.0000000000   31.7657423181
   Al   Fe   C    O    H 
   122     3     1     1     1
Selective dynamics
Direct
0.9666665393251961   0.1426666827703613   0.3148045432   F   F   F
0.1666665393251989   0.1426666827703613   0.3148045432   F   F   F
0.3666665393252018   0.1426666827703613   0.3148045432   F   F   F
0.5666665393251975   0.1426666827703613   0.3148045432   F   F   F
0.7666665393252003   0.1426666827703613   0.3148045432   F   F   F
0.9666665393251961   0.3426666827703642   0.3148045432   F   F   F
0.1666665393251989   0.3426666827703642   0.3148045432   F   F   F
0.3666665393252018   0.3426666827703642   0.3148045432   F   F   F
0.5666665393251975   0.3426666827703642   0.3148045432   F   F   F
0.7666665393252003   0.3426666827703642   0.3148045432   F   F   F
0.9666665393251961   0.5426666827703599   0.3148045432   F   F   F
0.1666665393251989   0.5426666827703599   0.3148045432   F   F   F
0.3666665393252018   0.5426666827703599   0.3148045432   F   F   F
0.5666665393251975   0.5426666827703599   0.3148045432   F   F   F
0.7666665393252003   0.5426666827703599   0.3148045432   F   F   F
0.9666665393251961   0.7426666827703627   0.3148045432   F   F   F
0.1666665393251989   0.7426666827703627   0.3148045432   F   F   F
0.3666665393252018   0.7426666827703627   0.3148045432   F   F   F
0.5666665393251975   0.7426666827703627   0.3148045432   F   F   F
0.7666665393252003   0.7426666827703627   0.3148045432   F   F   F
0.9666665393251961   0.9426666827703656   0.3148045432   F   F   F
0.1666665393251989   0.9426666827703656   0.3148045432   F   F   F
0.3666665393252018   0.9426666827703656   0.3148045432   F   F   F
0.5666665393251975   0.9426666827703656   0.3148045432   F   F   F
0.7666665393252003   0.9426666827703656   0.3148045432   F   F   F
0.0333332059918661   0.0093333494370285   0.3884143008   F   F   F
0.2333332059918689   0.0093333494370285   0.3884143008   F   F   F
0.4333332059918646   0.0093333494370285   0.3884143008   F   F   F
0.6333332059918675   0.0093333494370285   0.3884143008   F   F   F
0.8333332059918632   0.0093333494370285   0.3884143008   F   F   F
0.0333332059918661   0.2093333494370313   0.3884143008   F   F   F
0.2333332059918689   0.2093333494370313   0.3884143008   F   F   F
0.4333332059918646   0.2093333494370313   0.3884143008   F   F   F
0.6333332059918675   0.2093333494370313   0.3884143008   F   F   F
0.8333332059918632   0.2093333494370313   0.3884143008   F   F   F
0.0333332059918661   0.4093333494370270   0.3884143008   F   F   F
0.2333332059918689   0.4093333494370270   0.3884143008   F   F   F
0.4333332059918646   0.4093333494370270   0.3884143008   F   F   F
0.6333332059918675   0.4093333494370270   0.3884143008   F   F   F
0.8333332059918632   0.4093333494370270   0.3884143008   F   F   F
0.0333332059918661   0.6093333494370299   0.3884143008   F   F   F
0.2333332059918689   0.6093333494370299   0.3884143008   F   F   F
0.4333332059918646   0.6093333494370299   0.3884143008   F   F   F
0.6333332059918675   0.6093333494370299   0.3884143008   F   F   F
0.8333332059918632   0.6093333494370299   0.3884143008   F   F   F
0.0333332059918661   0.8093333494370256   0.3884143008   F   F   F
0.2333332059918689   0.8093333494370256   0.3884143008   F   F   F
0.4333332059918646   0.8093333494370256   0.3884143008   F   F   F
0.6333332059918675   0.8093333494370256   0.3884143008   F   F   F
0.8333332059918632   0.8093333494370256   0.3884143008   F   F   F
0.0999998726585360   0.0760000161036984   0.4620240583   F   F   F
0.2999998726585318   0.0760000161036984   0.4620240583   F   F   F
0.4999998726585346   0.0760000161036984   0.4620240583   F   F   F
0.6999998726585304   0.0760000161036984   0.4620240583   F   F   F
0.8999998726585332   0.0760000161036984   0.4620240583   F   F   F
0.0999998726585360   0.2760000161036942   0.4620240583   F   F   F
0.2999998726585318   0.2760000161036942   0.4620240583   F   F   F
0.4999998726585346   0.2760000161036942   0.4620240583   F   F   F
0.6999998726585304   0.2760000161036942   0.4620240583   F   F   F
0.8999998726585332   0.2760000161036942   0.4620240583   F   F   F
0.0999998726585360   0.4760000161036970   0.4620240583   F   F   F
0.2999998726585318   0.4760000161036970   0.4620240583   F   F   F
0.4999998726585346   0.4760000161036970   0.4620240583   F   F   F
0.6999998726585304   0.4760000161036970   0.4620240583   F   F   F
0.8999998726585332   0.4760000161036970   0.4620240583   F   F   F
0.0999998726585360   0.6760000161036928   0.4620240583   F   F   F
0.2999998726585318   0.6760000161036928   0.4620240583   F   F   F
0.4999998726585346   0.6760000161036928   0.4620240583   F   F   F
0.6999998726585304   0.6760000161036928   0.4620240583   F   F   F
0.8999998726585332   0.6760000161036928   0.4620240583   F   F   F
0.0999998726585360   0.8760000161036956   0.4620240583   F   F   F
0.2999998726585318   0.8760000161036956   0.4620240583   F   F   F
0.4999998726585346   0.8760000161036956   0.4620240583   F   F   F
0.6999998726585304   0.8760000161036956   0.4620240583   F   F   F
0.8999998726585332   0.8760000161036956   0.4620240583   F   F   F
0.9668019751951111   0.1426171405978388   0.5357591487   T   T   T
0.1684399486625746   0.1437732024454676   0.5354404693   T   T   T
0.3690718541877245   0.1409232795449727   0.5342227084   T   T   T
0.5655066617275092   0.1414580061599729   0.5344453280   T   T   T
0.7634164269915522   0.1439508644869728   0.5355957263   T   T   T
0.9675625384099591   0.3450244400753162   0.5355219663   T   T   T
0.1678468470088308   0.3441175046080273   0.5333958777   T   T   T
0.3658298935527513   0.3444558017563946   0.5343602191   T   T   T
0.5621685549698453   0.3449629908361516   0.5346648524   T   T   T
0.7633939301461919   0.3443121506615274   0.5355638496   T   T   T
0.9652682559508360   0.5454388228977631   0.5344815315   T   T   T
0.1700429714574673   0.5408347902398239   0.5341918399   T   T   T
0.3665688347870050   0.5416101688946383   0.5343102123   T   T   T
0.5656456664192703   0.5450416574238076   0.5344941689   T   T   T
0.7663467531121011   0.5431585490805044   0.5355195744   T   T   T
0.9654949897867838   0.7410827184398286   0.5344955738   T   T   T
0.1681708629974777   0.7394057322286776   0.5336045782   T   T   T
0.3690517828912718   0.7417603949982035   0.5342592168   T   T   T
0.5672623352781325   0.7434027821180985   0.5355905363   T   T   T
0.7658116307086940   0.7430423592988556   0.5358143520   T   T   T
0.9676857426157630   0.9392379774483306   0.5355660336   T   T   T
0.1684030898559203   0.9396917838559118   0.5354666676   T   T   T
0.3668025239894370   0.9425079756376805   0.5354190722   T   T   T
0.5672131749246233   0.9413817118572576   0.5356165075   T   T   T
0.7663534941857110   0.9422138655490546   0.5355711354   T   T   T
0.0360926863178023   0.0031833320140913   0.6089389737   T   T   T
0.2328693346961534   0.0095774494728459   0.6093522937   T   T   T
0.4299576391622280   0.0157868298790801   0.6091528236   T   T   T
0.6294473374532983   0.0148877940935663   0.6093158166   T   T   T
0.8336858521658502   0.0080495245230035   0.6094670382   T   T   T
0.0361515407768876   0.2127917974984300   0.6089945727   T   T   T
0.2359761567189450   0.2212479820318179   0.6072094332   T   T   T
0.4225887712854011   0.2303935154213276   0.6065027761   T   T   T
0.6211852781642105   0.2186817836744598   0.6080007683   T   T   T
0.8298121787672941   0.2108187429541129   0.6089850709   T   T   T
0.0459800598100375   0.4126485152083081   0.6074850723   T   T   T
0.6217487292566988   0.4118266458779024   0.6079882851   T   T   T
0.8335728840733498   0.4096749175960300   0.6094028757   T   T   T
0.0609771868747510   0.5954864538715473   0.6072533062   T   T   T
0.4230739034363336   0.5990015466962723   0.6068826561   T   T   T
0.6297389101916452   0.6074219856931929   0.6093760421   T   T   T
0.8400839837650045   0.6063896407934853   0.6094500643   T   T   T
0.0461075070870454   0.7933420410760120   0.6076412572   T   T   T
0.2360925908247725   0.7949775768998659   0.6073023083   T   T   T
0.4302846590007681   0.8060666161951943   0.6091599107   T   T   T
0.6325964861505904   0.8096949161120913   0.6108634934   T   T   T
0.8401772355990806   0.8048643069615821   0.6095527903   T   T   T
0.2366860058704495   0.4096815824612651   0.5952037931   T   T   T
0.4283774348765903   0.4120701420989047   0.5972553769   T   T   T
0.2386234515926133   0.6037527064732161   0.5954902863   T   T   T
0.2833522534769171   0.4827866483259043   0.6310654040   T   T   T
0.2942377820352506   0.4807291621798350   0.6738772101   T   T   T
0.2874566951496738   0.4210211449579828   0.6851954568   T   T   T
 
  0.00000000E+00  0.00000000E+00  0.00000000E+00
  0.00000000E+00  0.00000000E+00  0.00000000E+00
  0.00000000E+00  0.00000000E+00  0.00000000E+00
  0.00000000E+00  0.00000000E+00  0.00000000E+00
  0.00000000E+00  0.00000000E+00  0.00000000E+00
  0.00000000E+00  0.00000000E+00  0.00000000E+00
  0.00000000E+00  0.00000000E+00  0.00000000E+00
  0.00000000E+00  0.00000000E+00  0.00000000E+00
  0.00000000E+00  0.00000000E+00  0.00000000E+00
  0.00000000E+00  0.00000000E+00  0.00000000E+00
  0.00000000E+00  0.00000000E+00  0.00000000E+00
  0.00000000E+00  0.00000000E+00  0.00000000E+00
  0.00000000E+00  0.00000000E+00  0.00000000E+00
  0.00000000E+00  0.00000000E+00  0.00000000E+00
  0.00000000E+00  0.00000000E+00  0.00000000E+00
  0.00000000E+00  0.00000000E+00  0.00000000E+00
  0.00000000E+00  0.00000000E+00  0.00000000E+00
  0.00000000E+00  0.00000000E+00  0.00000000E+00
  0.00000000E+00  0.00000000E+00  0.00000000E+00
  0.00000000E+00  0.00000000E+00  0.00000000E+00
  0.00000000E+00  0.00000000E+00  0.00000000E+00
  0.00000000E+00  0.00000000E+00  0.00000000E+00
  0.00000000E+00  0.00000000E+00  0.00000000E+00
  0.00000000E+00  0.00000000E+00  0.00000000E+00
  0.00000000E+00  0.00000000E+00  0.00000000E+00
  0.00000000E+00  0.00000000E+00  0.00000000E+00
  0.00000000E+00  0.00000000E+00  0.00000000E+00
  0.00000000E+00  0.00000000E+00  0.00000000E+00
  0.00000000E+00  0.00000000E+00  0.00000000E+00
  0.00000000E+00  0.00000000E+00  0.00000000E+00
  0.00000000E+00  0.00000000E+00  0.00000000E+00
  0.00000000E+00  0.00000000E+00  0.00000000E+00
  0.00000000E+00  0.00000000E+00  0.00000000E+00
  0.00000000E+00  0.00000000E+00  0.00000000E+00
  0.00000000E+00  0.00000000E+00  0.00000000E+00
  0.00000000E+00  0.00000000E+00  0.00000000E+00
  0.00000000E+00  0.00000000E+00  0.00000000E+00
  0.00000000E+00  0.00000000E+00  0.00000000E+00
  0.00000000E+00  0.00000000E+00  0.00000000E+00
  0.00000000E+00  0.00000000E+00  0.00000000E+00
  0.00000000E+00  0.00000000E+00  0.00000000E+00
  0.00000000E+00  0.00000000E+00  0.00000000E+00
  0.00000000E+00  0.00000000E+00  0.00000000E+00
  0.00000000E+00  0.00000000E+00  0.00000000E+00
  0.00000000E+00  0.00000000E+00  0.00000000E+00
  0.00000000E+00  0.00000000E+00  0.00000000E+00
  0.00000000E+00  0.00000000E+00  0.00000000E+00
  0.00000000E+00  0.00000000E+00  0.00000000E+00
  0.00000000E+00  0.00000000E+00  0.00000000E+00
  0.00000000E+00  0.00000000E+00  0.00000000E+00
  0.00000000E+00  0.00000000E+00  0.00000000E+00
  0.00000000E+00  0.00000000E+00  0.00000000E+00
  0.00000000E+00  0.00000000E+00  0.00000000E+00
  0.00000000E+00  0.00000000E+00  0.00000000E+00
  0.00000000E+00  0.00000000E+00  0.00000000E+00
  0.00000000E+00  0.00000000E+00  0.00000000E+00
  0.00000000E+00  0.00000000E+00  0.00000000E+00
  0.00000000E+00  0.00000000E+00  0.00000000E+00
  0.00000000E+00  0.00000000E+00  0.00000000E+00
  0.00000000E+00  0.00000000E+00  0.00000000E+00
  0.00000000E+00  0.00000000E+00  0.00000000E+00
  0.00000000E+00  0.00000000E+00  0.00000000E+00
  0.00000000E+00  0.00000000E+00  0.00000000E+00
  0.00000000E+00  0.00000000E+00  0.00000000E+00
  0.00000000E+00  0.00000000E+00  0.00000000E+00
  0.00000000E+00  0.00000000E+00  0.00000000E+00
  0.00000000E+00  0.00000000E+00  0.00000000E+00
  0.00000000E+00  0.00000000E+00  0.00000000E+00
  0.00000000E+00  0.00000000E+00  0.00000000E+00
  0.00000000E+00  0.00000000E+00  0.00000000E+00
  0.00000000E+00  0.00000000E+00  0.00000000E+00
  0.00000000E+00  0.00000000E+00  0.00000000E+00
  0.00000000E+00  0.00000000E+00  0.00000000E+00
  0.00000000E+00  0.00000000E+00  0.00000000E+00
  0.00000000E+00  0.00000000E+00  0.00000000E+00
  0.00000000E+00  0.00000000E+00  0.00000000E+00
  0.00000000E+00  0.00000000E+00  0.00000000E+00
  0.00000000E+00  0.00000000E+00  0.00000000E+00
  0.00000000E+00  0.00000000E+00  0.00000000E+00
  0.00000000E+00  0.00000000E+00  0.00000000E+00
  0.00000000E+00  0.00000000E+00  0.00000000E+00
  0.00000000E+00  0.00000000E+00  0.00000000E+00
  0.00000000E+00  0.00000000E+00  0.00000000E+00
  0.00000000E+00  0.00000000E+00  0.00000000E+00
  0.00000000E+00  0.00000000E+00  0.00000000E+00
  0.00000000E+00  0.00000000E+00  0.00000000E+00
  0.00000000E+00  0.00000000E+00  0.00000000E+00
  0.00000000E+00  0.00000000E+00  0.00000000E+00
  0.00000000E+00  0.00000000E+00  0.00000000E+00
  0.00000000E+00  0.00000000E+00  0.00000000E+00
  0.00000000E+00  0.00000000E+00  0.00000000E+00
  0.00000000E+00  0.00000000E+00  0.00000000E+00
  0.00000000E+00  0.00000000E+00  0.00000000E+00
  0.00000000E+00  0.00000000E+00  0.00000000E+00
  0.00000000E+00  0.00000000E+00  0.00000000E+00
  0.00000000E+00  0.00000000E+00  0.00000000E+00
  0.00000000E+00  0.00000000E+00  0.00000000E+00
  0.00000000E+00  0.00000000E+00  0.00000000E+00
  0.00000000E+00  0.00000000E+00  0.00000000E+00
  0.00000000E+00  0.00000000E+00  0.00000000E+00
  0.00000000E+00  0.00000000E+00  0.00000000E+00
  0.00000000E+00  0.00000000E+00  0.00000000E+00
  0.00000000E+00  0.00000000E+00  0.00000000E+00
  0.00000000E+00  0.00000000E+00  0.00000000E+00
  0.00000000E+00  0.00000000E+00  0.00000000E+00
  0.00000000E+00  0.00000000E+00  0.00000000E+00
  0.00000000E+00  0.00000000E+00  0.00000000E+00
  0.00000000E+00  0.00000000E+00  0.00000000E+00
  0.00000000E+00  0.00000000E+00  0.00000000E+00
  0.00000000E+00  0.00000000E+00  0.00000000E+00
  0.00000000E+00  0.00000000E+00  0.00000000E+00
  0.00000000E+00  0.00000000E+00  0.00000000E+00
  0.00000000E+00  0.00000000E+00  0.00000000E+00
  0.00000000E+00  0.00000000E+00  0.00000000E+00
  0.00000000E+00  0.00000000E+00  0.00000000E+00
  0.00000000E+00  0.00000000E+00  0.00000000E+00
  0.00000000E+00  0.00000000E+00  0.00000000E+00
  0.00000000E+00  0.00000000E+00  0.00000000E+00
  0.00000000E+00  0.00000000E+00  0.00000000E+00
  0.00000000E+00  0.00000000E+00  0.00000000E+00
  0.00000000E+00  0.00000000E+00  0.00000000E+00
  0.00000000E+00  0.00000000E+00  0.00000000E+00
  0.00000000E+00  0.00000000E+00  0.00000000E+00
  0.00000000E+00  0.00000000E+00  0.00000000E+00
  0.00000000E+00  0.00000000E+00  0.00000000E+00
  0.00000000E+00  0.00000000E+00  0.00000000E+00
  0.00000000E+00  0.00000000E+00  0.00000000E+00
  0.00000000E+00  0.00000000E+00  0.00000000E+00
