Al Fe  O  H                             
   1.00000000000000     
    14.3189123190275875    0.0000000000000000    0.0000000000000000
     7.1594561595137938   12.4005418228398376    0.0000000000000000
   0.0000000000   0.0000000000   31.4421498456
   Al   Fe   O    H 
   122     3     1     1
Selective dynamics
Direct
0.9666665393251961   0.1426666827703613   0.3180444101   F   F   F
0.1666665393251989   0.1426666827703613   0.3180444101   F   F   F
0.3666665393252018   0.1426666827703613   0.3180444101   F   F   F
0.5666665393251975   0.1426666827703613   0.3180444101   F   F   F
0.7666665393252003   0.1426666827703613   0.3180444101   F   F   F
0.9666665393251961   0.3426666827703642   0.3180444101   F   F   F
0.1666665393251989   0.3426666827703642   0.3180444101   F   F   F
0.3666665393252018   0.3426666827703642   0.3180444101   F   F   F
0.5666665393251975   0.3426666827703642   0.3180444101   F   F   F
0.7666665393252003   0.3426666827703642   0.3180444101   F   F   F
0.9666665393251961   0.5426666827703599   0.3180444101   F   F   F
0.1666665393251989   0.5426666827703599   0.3180444101   F   F   F
0.3666665393252018   0.5426666827703599   0.3180444101   F   F   F
0.5666665393251975   0.5426666827703599   0.3180444101   F   F   F
0.7666665393252003   0.5426666827703599   0.3180444101   F   F   F
0.9666665393251961   0.7426666827703627   0.3180444101   F   F   F
0.1666665393251989   0.7426666827703627   0.3180444101   F   F   F
0.3666665393252018   0.7426666827703627   0.3180444101   F   F   F
0.5666665393251975   0.7426666827703627   0.3180444101   F   F   F
0.7666665393252003   0.7426666827703627   0.3180444101   F   F   F
0.9666665393251961   0.9426666827703656   0.3180444101   F   F   F
0.1666665393251989   0.9426666827703656   0.3180444101   F   F   F
0.3666665393252018   0.9426666827703656   0.3180444101   F   F   F
0.5666665393251975   0.9426666827703656   0.3180444101   F   F   F
0.7666665393252003   0.9426666827703656   0.3180444101   F   F   F
0.0333332059918661   0.0093333494370285   0.3924117356   F   F   F
0.2333332059918689   0.0093333494370285   0.3924117356   F   F   F
0.4333332059918646   0.0093333494370285   0.3924117356   F   F   F
0.6333332059918675   0.0093333494370285   0.3924117356   F   F   F
0.8333332059918632   0.0093333494370285   0.3924117356   F   F   F
0.0333332059918661   0.2093333494370313   0.3924117356   F   F   F
0.2333332059918689   0.2093333494370313   0.3924117356   F   F   F
0.4333332059918646   0.2093333494370313   0.3924117356   F   F   F
0.6333332059918675   0.2093333494370313   0.3924117356   F   F   F
0.8333332059918632   0.2093333494370313   0.3924117356   F   F   F
0.0333332059918661   0.4093333494370270   0.3924117356   F   F   F
0.2333332059918689   0.4093333494370270   0.3924117356   F   F   F
0.4333332059918646   0.4093333494370270   0.3924117356   F   F   F
0.6333332059918675   0.4093333494370270   0.3924117356   F   F   F
0.8333332059918632   0.4093333494370270   0.3924117356   F   F   F
0.0333332059918661   0.6093333494370299   0.3924117356   F   F   F
0.2333332059918689   0.6093333494370299   0.3924117356   F   F   F
0.4333332059918646   0.6093333494370299   0.3924117356   F   F   F
0.6333332059918675   0.6093333494370299   0.3924117356   F   F   F
0.8333332059918632   0.6093333494370299   0.3924117356   F   F   F
0.0333332059918661   0.8093333494370256   0.3924117356   F   F   F
0.2333332059918689   0.8093333494370256   0.3924117356   F   F   F
0.4333332059918646   0.8093333494370256   0.3924117356   F   F   F
0.6333332059918675   0.8093333494370256   0.3924117356   F   F   F
0.8333332059918632   0.8093333494370256   0.3924117356   F   F   F
0.0999998726585360   0.0760000161036984   0.4667790610   F   F   F
0.2999998726585318   0.0760000161036984   0.4667790610   F   F   F
0.4999998726585346   0.0760000161036984   0.4667790610   F   F   F
0.6999998726585304   0.0760000161036984   0.4667790610   F   F   F
0.8999998726585332   0.0760000161036984   0.4667790610   F   F   F
0.0999998726585360   0.2760000161036942   0.4667790610   F   F   F
0.2999998726585318   0.2760000161036942   0.4667790610   F   F   F
0.4999998726585346   0.2760000161036942   0.4667790610   F   F   F
0.6999998726585304   0.2760000161036942   0.4667790610   F   F   F
0.8999998726585332   0.2760000161036942   0.4667790610   F   F   F
0.0999998726585360   0.4760000161036970   0.4667790610   F   F   F
0.2999998726585318   0.4760000161036970   0.4667790610   F   F   F
0.4999998726585346   0.4760000161036970   0.4667790610   F   F   F
0.6999998726585304   0.4760000161036970   0.4667790610   F   F   F
0.8999998726585332   0.4760000161036970   0.4667790610   F   F   F
0.0999998726585360   0.6760000161036928   0.4667790610   F   F   F
0.2999998726585318   0.6760000161036928   0.4667790610   F   F   F
0.4999998726585346   0.6760000161036928   0.4667790610   F   F   F
0.6999998726585304   0.6760000161036928   0.4667790610   F   F   F
0.8999998726585332   0.6760000161036928   0.4667790610   F   F   F
0.0999998726585360   0.8760000161036956   0.4667790610   F   F   F
0.2999998726585318   0.8760000161036956   0.4667790610   F   F   F
0.4999998726585346   0.8760000161036956   0.4667790610   F   F   F
0.6999998726585304   0.8760000161036956   0.4667790610   F   F   F
0.8999998726585332   0.8760000161036956   0.4667790610   F   F   F
0.9694226040058616   0.1404591485151616   0.5406098111   T   T   T
0.1677401839456661   0.1423476342054455   0.5407420016   T   T   T
0.3692607865809360   0.1410498177352229   0.5400740587   T   T   T
0.5660864451281630   0.1400855013466913   0.5397564187   T   T   T
0.7669585620462378   0.1414328880017851   0.5407777049   T   T   T
0.9672369840228177   0.3442573187419438   0.5407930753   T   T   T
0.1671776109202711   0.3420662105116937   0.5392157016   T   T   T
0.3644600406888636   0.3462567472653355   0.5401513098   T   T   T
0.5656283054750483   0.3428466221538811   0.5383684672   T   T   T
0.7686315361879168   0.3409718353019266   0.5402791099   T   T   T
0.9653705620748592   0.5448616333520483   0.5398734483   T   T   T
0.1694590304460292   0.5403223556007691   0.5402780620   T   T   T
0.3689118151259319   0.5406476672112935   0.5452955374   T   T   T
0.5657706934726684   0.5448232566879415   0.5394708494   T   T   T
0.7657464192376242   0.5436485139263231   0.5412199685   T   T   T
0.9661676963723940   0.7409169587610259   0.5398799736   T   T   T
0.1677583263306349   0.7412892909727193   0.5392573309   T   T   T
0.3699309786241988   0.7430516121737648   0.5399714841   T   T   T
0.5675246838871432   0.7419383558587228   0.5415062787   T   T   T
0.7656993619554504   0.7425563993580654   0.5405294189   T   T   T
0.9681638621581325   0.9404586316039237   0.5406660251   T   T   T
0.1685643129836809   0.9405006367481843   0.5410903465   T   T   T
0.3683555763279898   0.9425344363234444   0.5407772156   T   T   T
0.5682247873982869   0.9395748703656823   0.5408857555   T   T   T
0.7681289974182539   0.9405952464377419   0.5407804273   T   T   T
0.0390153079122918   0.0028643408455592   0.6152805219   T   T   T
0.2336720415001216   0.0094447665946743   0.6157397156   T   T   T
0.4327022873667765   0.0120689998582322   0.6153268105   T   T   T
0.6323471712350638   0.0112411836094015   0.6148319384   T   T   T
0.8347523426847751   0.0076861203750981   0.6154274726   T   T   T
0.0342033099507041   0.2098649105381493   0.6152580354   T   T   T
0.2355566155196071   0.2148833201212713   0.6136358391   T   T   T
0.4218950369201875   0.2278775404288756   0.6127559528   T   T   T
0.6298177893885625   0.2102416670947357   0.6129615485   T   T   T
0.8361137718314473   0.2061589281018976   0.6145584239   T   T   T
0.0402766145617989   0.4103631752904156   0.6135695834   T   T   T
0.6323709626460077   0.4045750171181984   0.6106939938   T   T   T
0.8347286116728159   0.4096012068593394   0.6152996382   T   T   T
0.0510108370015685   0.5983845486766931   0.6134949729   T   T   T
0.4214074162650652   0.5767044256005640   0.6253448960   T   T   T
0.6247923603021104   0.6051246173894793   0.6165176177   T   T   T
0.8361768416482249   0.6082705919608432   0.6153406778   T   T   T
0.0410885513269467   0.7997785785895053   0.6138682936   T   T   T
0.2427973981641630   0.7898849896364798   0.6140903836   T   T   T
0.4310216114408306   0.8073098914576052   0.6159831899   T   T   T
0.6335742424384105   0.8074230598661428   0.6166512391   T   T   T
0.8389174794116925   0.8050205206753850   0.6150931436   T   T   T
0.2261529817320116   0.4051624315014171   0.6018825461   T   T   T
0.4535388314210617   0.3848778066639720   0.6020601587   T   T   T
0.2205570090329373   0.6184169864176837   0.6014274053   T   T   T
0.3964402049433009   0.4893903207095520   0.6591274168   T   T   T
0.4368958289682487   0.4424356573360106   0.6819555899   T   T   T
 
  0.00000000E+00  0.00000000E+00  0.00000000E+00
  0.00000000E+00  0.00000000E+00  0.00000000E+00
  0.00000000E+00  0.00000000E+00  0.00000000E+00
  0.00000000E+00  0.00000000E+00  0.00000000E+00
  0.00000000E+00  0.00000000E+00  0.00000000E+00
  0.00000000E+00  0.00000000E+00  0.00000000E+00
  0.00000000E+00  0.00000000E+00  0.00000000E+00
  0.00000000E+00  0.00000000E+00  0.00000000E+00
  0.00000000E+00  0.00000000E+00  0.00000000E+00
  0.00000000E+00  0.00000000E+00  0.00000000E+00
  0.00000000E+00  0.00000000E+00  0.00000000E+00
  0.00000000E+00  0.00000000E+00  0.00000000E+00
  0.00000000E+00  0.00000000E+00  0.00000000E+00
  0.00000000E+00  0.00000000E+00  0.00000000E+00
  0.00000000E+00  0.00000000E+00  0.00000000E+00
  0.00000000E+00  0.00000000E+00  0.00000000E+00
  0.00000000E+00  0.00000000E+00  0.00000000E+00
  0.00000000E+00  0.00000000E+00  0.00000000E+00
  0.00000000E+00  0.00000000E+00  0.00000000E+00
  0.00000000E+00  0.00000000E+00  0.00000000E+00
  0.00000000E+00  0.00000000E+00  0.00000000E+00
  0.00000000E+00  0.00000000E+00  0.00000000E+00
  0.00000000E+00  0.00000000E+00  0.00000000E+00
  0.00000000E+00  0.00000000E+00  0.00000000E+00
  0.00000000E+00  0.00000000E+00  0.00000000E+00
  0.00000000E+00  0.00000000E+00  0.00000000E+00
  0.00000000E+00  0.00000000E+00  0.00000000E+00
  0.00000000E+00  0.00000000E+00  0.00000000E+00
  0.00000000E+00  0.00000000E+00  0.00000000E+00
  0.00000000E+00  0.00000000E+00  0.00000000E+00
  0.00000000E+00  0.00000000E+00  0.00000000E+00
  0.00000000E+00  0.00000000E+00  0.00000000E+00
  0.00000000E+00  0.00000000E+00  0.00000000E+00
  0.00000000E+00  0.00000000E+00  0.00000000E+00
  0.00000000E+00  0.00000000E+00  0.00000000E+00
  0.00000000E+00  0.00000000E+00  0.00000000E+00
  0.00000000E+00  0.00000000E+00  0.00000000E+00
  0.00000000E+00  0.00000000E+00  0.00000000E+00
  0.00000000E+00  0.00000000E+00  0.00000000E+00
  0.00000000E+00  0.00000000E+00  0.00000000E+00
  0.00000000E+00  0.00000000E+00  0.00000000E+00
  0.00000000E+00  0.00000000E+00  0.00000000E+00
  0.00000000E+00  0.00000000E+00  0.00000000E+00
  0.00000000E+00  0.00000000E+00  0.00000000E+00
  0.00000000E+00  0.00000000E+00  0.00000000E+00
  0.00000000E+00  0.00000000E+00  0.00000000E+00
  0.00000000E+00  0.00000000E+00  0.00000000E+00
  0.00000000E+00  0.00000000E+00  0.00000000E+00
  0.00000000E+00  0.00000000E+00  0.00000000E+00
  0.00000000E+00  0.00000000E+00  0.00000000E+00
  0.00000000E+00  0.00000000E+00  0.00000000E+00
  0.00000000E+00  0.00000000E+00  0.00000000E+00
  0.00000000E+00  0.00000000E+00  0.00000000E+00
  0.00000000E+00  0.00000000E+00  0.00000000E+00
  0.00000000E+00  0.00000000E+00  0.00000000E+00
  0.00000000E+00  0.00000000E+00  0.00000000E+00
  0.00000000E+00  0.00000000E+00  0.00000000E+00
  0.00000000E+00  0.00000000E+00  0.00000000E+00
  0.00000000E+00  0.00000000E+00  0.00000000E+00
  0.00000000E+00  0.00000000E+00  0.00000000E+00
  0.00000000E+00  0.00000000E+00  0.00000000E+00
  0.00000000E+00  0.00000000E+00  0.00000000E+00
  0.00000000E+00  0.00000000E+00  0.00000000E+00
  0.00000000E+00  0.00000000E+00  0.00000000E+00
  0.00000000E+00  0.00000000E+00  0.00000000E+00
  0.00000000E+00  0.00000000E+00  0.00000000E+00
  0.00000000E+00  0.00000000E+00  0.00000000E+00
  0.00000000E+00  0.00000000E+00  0.00000000E+00
  0.00000000E+00  0.00000000E+00  0.00000000E+00
  0.00000000E+00  0.00000000E+00  0.00000000E+00
  0.00000000E+00  0.00000000E+00  0.00000000E+00
  0.00000000E+00  0.00000000E+00  0.00000000E+00
  0.00000000E+00  0.00000000E+00  0.00000000E+00
  0.00000000E+00  0.00000000E+00  0.00000000E+00
  0.00000000E+00  0.00000000E+00  0.00000000E+00
  0.00000000E+00  0.00000000E+00  0.00000000E+00
  0.00000000E+00  0.00000000E+00  0.00000000E+00
  0.00000000E+00  0.00000000E+00  0.00000000E+00
  0.00000000E+00  0.00000000E+00  0.00000000E+00
  0.00000000E+00  0.00000000E+00  0.00000000E+00
  0.00000000E+00  0.00000000E+00  0.00000000E+00
  0.00000000E+00  0.00000000E+00  0.00000000E+00
  0.00000000E+00  0.00000000E+00  0.00000000E+00
  0.00000000E+00  0.00000000E+00  0.00000000E+00
  0.00000000E+00  0.00000000E+00  0.00000000E+00
  0.00000000E+00  0.00000000E+00  0.00000000E+00
  0.00000000E+00  0.00000000E+00  0.00000000E+00
  0.00000000E+00  0.00000000E+00  0.00000000E+00
  0.00000000E+00  0.00000000E+00  0.00000000E+00
  0.00000000E+00  0.00000000E+00  0.00000000E+00
  0.00000000E+00  0.00000000E+00  0.00000000E+00
  0.00000000E+00  0.00000000E+00  0.00000000E+00
  0.00000000E+00  0.00000000E+00  0.00000000E+00
  0.00000000E+00  0.00000000E+00  0.00000000E+00
  0.00000000E+00  0.00000000E+00  0.00000000E+00
  0.00000000E+00  0.00000000E+00  0.00000000E+00
  0.00000000E+00  0.00000000E+00  0.00000000E+00
  0.00000000E+00  0.00000000E+00  0.00000000E+00
  0.00000000E+00  0.00000000E+00  0.00000000E+00
  0.00000000E+00  0.00000000E+00  0.00000000E+00
  0.00000000E+00  0.00000000E+00  0.00000000E+00
  0.00000000E+00  0.00000000E+00  0.00000000E+00
  0.00000000E+00  0.00000000E+00  0.00000000E+00
  0.00000000E+00  0.00000000E+00  0.00000000E+00
  0.00000000E+00  0.00000000E+00  0.00000000E+00
  0.00000000E+00  0.00000000E+00  0.00000000E+00
  0.00000000E+00  0.00000000E+00  0.00000000E+00
  0.00000000E+00  0.00000000E+00  0.00000000E+00
  0.00000000E+00  0.00000000E+00  0.00000000E+00
  0.00000000E+00  0.00000000E+00  0.00000000E+00
  0.00000000E+00  0.00000000E+00  0.00000000E+00
  0.00000000E+00  0.00000000E+00  0.00000000E+00
  0.00000000E+00  0.00000000E+00  0.00000000E+00
  0.00000000E+00  0.00000000E+00  0.00000000E+00
  0.00000000E+00  0.00000000E+00  0.00000000E+00
  0.00000000E+00  0.00000000E+00  0.00000000E+00
  0.00000000E+00  0.00000000E+00  0.00000000E+00
  0.00000000E+00  0.00000000E+00  0.00000000E+00
  0.00000000E+00  0.00000000E+00  0.00000000E+00
  0.00000000E+00  0.00000000E+00  0.00000000E+00
  0.00000000E+00  0.00000000E+00  0.00000000E+00
  0.00000000E+00  0.00000000E+00  0.00000000E+00
  0.00000000E+00  0.00000000E+00  0.00000000E+00
  0.00000000E+00  0.00000000E+00  0.00000000E+00
  0.00000000E+00  0.00000000E+00  0.00000000E+00
  0.00000000E+00  0.00000000E+00  0.00000000E+00
  0.00000000E+00  0.00000000E+00  0.00000000E+00
