 C  H 
 1.0000000000000000
    14.3189123190275875    0.0000000000000000    0.0000000000000000
     0.0000000000000000   14.3189123190275875    0.0000000000000000
   0.0000000000   0.0000000000   21.2582360000
 C   H  
   1   4
Selective dynamics
Cartesian
7.1594561595137938   7.1594561595137938   10.6291180000   T   T   T
7.7885741595137938   7.7885741595137938   11.2582360000   T   T   T
6.5303381595137937   6.5303381595137937   11.2582360000   T   T   T
7.7885741595137938   6.5303381595137937   10.0000000000   T   T   T
6.5303381595137937   7.7885741595137938   10.0000000000   T   T   T
