Al Fe Al  C  H  C  H                    
   1.00000000000000     
    14.3189123190275875    0.0000000000000000    0.0000000000000000
     7.1594561595137938   12.4005418228398376    0.0000000000000000
   0.0000000000   0.0000000000   35.1056990691
   Al   Fe   Al   C    H    C    H 
   112     1    12     5    11     1     2
Selective dynamics
Direct
0.9333333333333300   0.1333333333333329   0.2848540341   F   F   F
0.1333333333333329   0.1333333333333329   0.2848540341   F   F   F
0.3333333333333357   0.1333333333333329   0.2848540341   F   F   F
0.5333333333333314   0.1333333333333329   0.2848540341   F   F   F
0.7333333333333343   0.1333333333333329   0.2848540341   F   F   F
0.9333333333333300   0.3333333333333357   0.2848540341   F   F   F
0.1333333333333329   0.3333333333333357   0.2848540341   F   F   F
0.3333333333333357   0.3333333333333357   0.2848540341   F   F   F
0.5333333333333314   0.3333333333333357   0.2848540341   F   F   F
0.7333333333333343   0.3333333333333357   0.2848540341   F   F   F
0.9333333333333300   0.5333333333333314   0.2848540341   F   F   F
0.1333333333333329   0.5333333333333314   0.2848540341   F   F   F
0.3333333333333357   0.5333333333333314   0.2848540341   F   F   F
0.5333333333333314   0.5333333333333314   0.2848540341   F   F   F
0.7333333333333343   0.5333333333333314   0.2848540341   F   F   F
0.9333333333333300   0.7333333333333343   0.2848540341   F   F   F
0.1333333333333329   0.7333333333333343   0.2848540341   F   F   F
0.3333333333333357   0.7333333333333343   0.2848540341   F   F   F
0.5333333333333314   0.7333333333333343   0.2848540341   F   F   F
0.7333333333333343   0.7333333333333343   0.2848540341   F   F   F
0.9333333333333300   0.9333333333333371   0.2848540341   F   F   F
0.1333333333333329   0.9333333333333371   0.2848540341   F   F   F
0.3333333333333357   0.9333333333333371   0.2848540341   F   F   F
0.5333333333333314   0.9333333333333371   0.2848540341   F   F   F
0.7333333333333343   0.9333333333333371   0.2848540341   F   F   F
0.0000000000000000   0.0000000000000000   0.3514605582   F   F   F
0.2000000000000028   0.0000000000000000   0.3514605582   F   F   F
0.3999999999999986   0.0000000000000000   0.3514605582   F   F   F
0.6000000000000014   0.0000000000000000   0.3514605582   F   F   F
0.7999999999999972   0.0000000000000000   0.3514605582   F   F   F
0.0000000000000000   0.2000000000000028   0.3514605582   F   F   F
0.2000000000000028   0.2000000000000028   0.3514605582   F   F   F
0.3999999999999986   0.2000000000000028   0.3514605582   F   F   F
0.6000000000000014   0.2000000000000028   0.3514605582   F   F   F
0.7999999999999972   0.2000000000000028   0.3514605582   F   F   F
0.0000000000000000   0.3999999999999986   0.3514605582   F   F   F
0.2000000000000028   0.3999999999999986   0.3514605582   F   F   F
0.3999999999999986   0.3999999999999986   0.3514605582   F   F   F
0.6000000000000014   0.3999999999999986   0.3514605582   F   F   F
0.7999999999999972   0.3999999999999986   0.3514605582   F   F   F
0.0000000000000000   0.6000000000000014   0.3514605582   F   F   F
0.2000000000000028   0.6000000000000014   0.3514605582   F   F   F
0.3999999999999986   0.6000000000000014   0.3514605582   F   F   F
0.6000000000000014   0.6000000000000014   0.3514605582   F   F   F
0.7999999999999972   0.6000000000000014   0.3514605582   F   F   F
0.0000000000000000   0.7999999999999972   0.3514605582   F   F   F
0.2000000000000028   0.7999999999999972   0.3514605582   F   F   F
0.3999999999999986   0.7999999999999972   0.3514605582   F   F   F
0.6000000000000014   0.7999999999999972   0.3514605582   F   F   F
0.7999999999999972   0.7999999999999972   0.3514605582   F   F   F
0.0666666666666700   0.0666666666666700   0.4180670823   F   F   F
0.2666666666666657   0.0666666666666700   0.4180670823   F   F   F
0.4666666666666686   0.0666666666666700   0.4180670823   F   F   F
0.6666666666666643   0.0666666666666700   0.4180670823   F   F   F
0.8666666666666671   0.0666666666666700   0.4180670823   F   F   F
0.0666666666666700   0.2666666666666657   0.4180670823   F   F   F
0.2666666666666657   0.2666666666666657   0.4180670823   F   F   F
0.4666666666666686   0.2666666666666657   0.4180670823   F   F   F
0.6666666666666643   0.2666666666666657   0.4180670823   F   F   F
0.8666666666666671   0.2666666666666657   0.4180670823   F   F   F
0.0666666666666700   0.4666666666666686   0.4180670823   F   F   F
0.2666666666666657   0.4666666666666686   0.4180670823   F   F   F
0.4666666666666686   0.4666666666666686   0.4180670823   F   F   F
0.6666666666666643   0.4666666666666686   0.4180670823   F   F   F
0.8666666666666671   0.4666666666666686   0.4180670823   F   F   F
0.0666666666666700   0.6666666666666643   0.4180670823   F   F   F
0.2666666666666657   0.6666666666666643   0.4180670823   F   F   F
0.4666666666666686   0.6666666666666643   0.4180670823   F   F   F
0.6666666666666643   0.6666666666666643   0.4180670823   F   F   F
0.8666666666666671   0.6666666666666643   0.4180670823   F   F   F
0.0666666666666700   0.8666666666666671   0.4180670823   F   F   F
0.2666666666666657   0.8666666666666671   0.4180670823   F   F   F
0.4666666666666686   0.8666666666666671   0.4180670823   F   F   F
0.6666666666666643   0.8666666666666671   0.4180670823   F   F   F
0.8666666666666671   0.8666666666666671   0.4180670823   F   F   F
0.9315731216169657   0.1348432860675375   0.4848016794   T   T   T
0.1336625860736022   0.1332517018868854   0.4844385233   T   T   T
0.3345430350273494   0.1328198063187832   0.4845052871   T   T   T
0.5314385672178332   0.1333644376595658   0.4835420698   T   T   T
0.7303970168725746   0.1356300721633776   0.4843488828   T   T   T
0.9342320571053677   0.3329435810975265   0.4846692648   T   T   T
0.1325852749785160   0.3337713397071012   0.4839721368   T   T   T
0.3343202553254230   0.3282905214780663   0.4833169749   T   T   T
0.5299718491034057   0.3387868332666866   0.4854682287   T   T   T
0.7303075427654424   0.3356405017286901   0.4849378170   T   T   T
0.9338252371081278   0.5343367825459219   0.4843219343   T   T   T
0.1330944712890094   0.5339317086968294   0.4830554449   T   T   T
0.3367740228446220   0.5309007459722825   0.4856056198   T   T   T
0.5342240851932291   0.5351651068991847   0.4865749450   T   T   T
0.7362449011670742   0.5339337811958339   0.4837523514   T   T   T
0.9339096227506118   0.7347055503422617   0.4844854774   T   T   T
0.1352655094896680   0.7315101556510301   0.4847123933   T   T   T
0.3349411173248860   0.7309832798115005   0.4849220088   T   T   T
0.5340651995091079   0.7360369894440658   0.4837552177   T   T   T
0.7346986763191482   0.7344720795903736   0.4845370320   T   T   T
0.9343345252983390   0.9340706326781516   0.4847027437   T   T   T
0.1344484680143834   0.9324821579783623   0.4846886459   T   T   T
0.3333625584710376   0.9339812985708091   0.4846312913   T   T   T
0.5342028992064126   0.9335769028108344   0.4842823984   T   T   T
0.7346270940381587   0.9336077693362589   0.4841606864   T   T   T
0.0008508766582893   0.0009528735141758   0.5519360265   T   T   T
0.2013397386103515   -0.0006371171668493   0.5514213857   T   T   T
0.4019203928803736   0.0032193346414274   0.5510059363   T   T   T
0.5998823685488696   0.0039295169682199   0.5496816121   T   T   T
0.8000748302628191   0.0024399421849954   0.5510400492   T   T   T
0.0007675377386019   0.2012140410311980   0.5516586091   T   T   T
0.2012639279815220   0.2004753068073949   0.5505122910   T   T   T
0.3964731689230737   0.2134688525066182   0.5686558870   T   T   T
0.5898698098293660   0.2074029870918514   0.5481542921   T   T   T
0.7973285871674007   0.2015612040058928   0.5516834517   T   T   T
0.0018105812926311   0.4013388991570851   0.5513477166   T   T   T
0.2048105280691966   0.3989916303615224   0.5483215517   T   T   T
0.3898581793463910   0.3907118205548911   0.5379910464   T   T   T
0.5994257667369156   0.3967191031657952   0.5555185400   T   T   T
0.8006154127080265   0.4024293155225364   0.5511247927   T   T   T
0.0048078779894217   0.5992830362440069   0.5509043457   T   T   T
0.2069673552416497   0.5912649115412733   0.5498224028   T   T   T
0.3969836094614736   0.5989108732884191   0.5558810668   T   T   T
0.6068424162151237   0.6062383347313539   0.5488594927   T   T   T
0.8046388323856077   0.6022850939598876   0.5516734725   T   T   T
0.0033405471305647   0.7990084442839608   0.5513577623   T   T   T
0.2023372898583328   0.7977663631195008   0.5518240151   T   T   T
0.4034238323588559   0.8005184393844811   0.5510471328   T   T   T
0.6022369352758065   0.8047289855473154   0.5516120959   T   T   T
0.8021784784143048   0.8024123845343749   0.5520370037   T   T   T
0.4215785633366543   0.1992273535066346   0.6261098332   T   T   T
0.2338723515695380   0.2991832706955559   0.6575544865   T   T   T
0.0501194645798072   0.4011080452215036   0.6901256971   T   T   T
0.1575716433624576   0.2950105085692997   0.6872387569   T   T   T
0.3407888179217137   0.1929615256869505   0.6533593768   T   T   T
0.4321450340137601   0.2677711920615174   0.6340666688   T   T   T
0.3777836472310488   0.1684999188016597   0.6817303877   T   T   T
0.2510268108600619   0.3636289965676960   0.6652105717   T   T   T
0.1924993959178594   0.3226004184910092   0.6298510374   T   T   T
0.3239933844455720   0.1293758266993366   0.6440845639   T   T   T
0.1422995991738132   0.2292064985560132   0.6800574576   T   T   T
0.1976976538076892   0.2748731158381728   0.7151459659   T   T   T
0.0631419244332831   0.4682336853361138   0.6969050853   T   T   T
0.0055945455107467   0.4200953978763633   0.6632180951   T   T   T
0.5011998774878205   0.1268780700548136   0.6295655337   T   T   T
-0.0010141043837327   0.3970983797956739   0.7123895814   T   T   T
0.4925649633162947   0.4913506689873328   0.5949688353   T   T   T
0.4544499120463156   0.4524366867376984   0.6103042571   T   T   T
0.5266102663899094   0.5234514322887857   0.6156824914   T   T   T
 
  0.00000000E+00  0.00000000E+00  0.00000000E+00
  0.00000000E+00  0.00000000E+00  0.00000000E+00
  0.00000000E+00  0.00000000E+00  0.00000000E+00
  0.00000000E+00  0.00000000E+00  0.00000000E+00
  0.00000000E+00  0.00000000E+00  0.00000000E+00
  0.00000000E+00  0.00000000E+00  0.00000000E+00
  0.00000000E+00  0.00000000E+00  0.00000000E+00
  0.00000000E+00  0.00000000E+00  0.00000000E+00
  0.00000000E+00  0.00000000E+00  0.00000000E+00
  0.00000000E+00  0.00000000E+00  0.00000000E+00
  0.00000000E+00  0.00000000E+00  0.00000000E+00
  0.00000000E+00  0.00000000E+00  0.00000000E+00
  0.00000000E+00  0.00000000E+00  0.00000000E+00
  0.00000000E+00  0.00000000E+00  0.00000000E+00
  0.00000000E+00  0.00000000E+00  0.00000000E+00
  0.00000000E+00  0.00000000E+00  0.00000000E+00
  0.00000000E+00  0.00000000E+00  0.00000000E+00
  0.00000000E+00  0.00000000E+00  0.00000000E+00
  0.00000000E+00  0.00000000E+00  0.00000000E+00
  0.00000000E+00  0.00000000E+00  0.00000000E+00
  0.00000000E+00  0.00000000E+00  0.00000000E+00
  0.00000000E+00  0.00000000E+00  0.00000000E+00
  0.00000000E+00  0.00000000E+00  0.00000000E+00
  0.00000000E+00  0.00000000E+00  0.00000000E+00
  0.00000000E+00  0.00000000E+00  0.00000000E+00
  0.00000000E+00  0.00000000E+00  0.00000000E+00
  0.00000000E+00  0.00000000E+00  0.00000000E+00
  0.00000000E+00  0.00000000E+00  0.00000000E+00
  0.00000000E+00  0.00000000E+00  0.00000000E+00
  0.00000000E+00  0.00000000E+00  0.00000000E+00
  0.00000000E+00  0.00000000E+00  0.00000000E+00
  0.00000000E+00  0.00000000E+00  0.00000000E+00
  0.00000000E+00  0.00000000E+00  0.00000000E+00
  0.00000000E+00  0.00000000E+00  0.00000000E+00
  0.00000000E+00  0.00000000E+00  0.00000000E+00
  0.00000000E+00  0.00000000E+00  0.00000000E+00
  0.00000000E+00  0.00000000E+00  0.00000000E+00
  0.00000000E+00  0.00000000E+00  0.00000000E+00
  0.00000000E+00  0.00000000E+00  0.00000000E+00
  0.00000000E+00  0.00000000E+00  0.00000000E+00
  0.00000000E+00  0.00000000E+00  0.00000000E+00
  0.00000000E+00  0.00000000E+00  0.00000000E+00
  0.00000000E+00  0.00000000E+00  0.00000000E+00
  0.00000000E+00  0.00000000E+00  0.00000000E+00
  0.00000000E+00  0.00000000E+00  0.00000000E+00
  0.00000000E+00  0.00000000E+00  0.00000000E+00
  0.00000000E+00  0.00000000E+00  0.00000000E+00
  0.00000000E+00  0.00000000E+00  0.00000000E+00
  0.00000000E+00  0.00000000E+00  0.00000000E+00
  0.00000000E+00  0.00000000E+00  0.00000000E+00
  0.00000000E+00  0.00000000E+00  0.00000000E+00
  0.00000000E+00  0.00000000E+00  0.00000000E+00
  0.00000000E+00  0.00000000E+00  0.00000000E+00
  0.00000000E+00  0.00000000E+00  0.00000000E+00
  0.00000000E+00  0.00000000E+00  0.00000000E+00
  0.00000000E+00  0.00000000E+00  0.00000000E+00
  0.00000000E+00  0.00000000E+00  0.00000000E+00
  0.00000000E+00  0.00000000E+00  0.00000000E+00
  0.00000000E+00  0.00000000E+00  0.00000000E+00
  0.00000000E+00  0.00000000E+00  0.00000000E+00
  0.00000000E+00  0.00000000E+00  0.00000000E+00
  0.00000000E+00  0.00000000E+00  0.00000000E+00
  0.00000000E+00  0.00000000E+00  0.00000000E+00
  0.00000000E+00  0.00000000E+00  0.00000000E+00
  0.00000000E+00  0.00000000E+00  0.00000000E+00
  0.00000000E+00  0.00000000E+00  0.00000000E+00
  0.00000000E+00  0.00000000E+00  0.00000000E+00
  0.00000000E+00  0.00000000E+00  0.00000000E+00
  0.00000000E+00  0.00000000E+00  0.00000000E+00
  0.00000000E+00  0.00000000E+00  0.00000000E+00
  0.00000000E+00  0.00000000E+00  0.00000000E+00
  0.00000000E+00  0.00000000E+00  0.00000000E+00
  0.00000000E+00  0.00000000E+00  0.00000000E+00
  0.00000000E+00  0.00000000E+00  0.00000000E+00
  0.00000000E+00  0.00000000E+00  0.00000000E+00
  0.00000000E+00  0.00000000E+00  0.00000000E+00
  0.00000000E+00  0.00000000E+00  0.00000000E+00
  0.00000000E+00  0.00000000E+00  0.00000000E+00
  0.00000000E+00  0.00000000E+00  0.00000000E+00
  0.00000000E+00  0.00000000E+00  0.00000000E+00
  0.00000000E+00  0.00000000E+00  0.00000000E+00
  0.00000000E+00  0.00000000E+00  0.00000000E+00
  0.00000000E+00  0.00000000E+00  0.00000000E+00
  0.00000000E+00  0.00000000E+00  0.00000000E+00
  0.00000000E+00  0.00000000E+00  0.00000000E+00
  0.00000000E+00  0.00000000E+00  0.00000000E+00
  0.00000000E+00  0.00000000E+00  0.00000000E+00
  0.00000000E+00  0.00000000E+00  0.00000000E+00
  0.00000000E+00  0.00000000E+00  0.00000000E+00
  0.00000000E+00  0.00000000E+00  0.00000000E+00
  0.00000000E+00  0.00000000E+00  0.00000000E+00
  0.00000000E+00  0.00000000E+00  0.00000000E+00
  0.00000000E+00  0.00000000E+00  0.00000000E+00
  0.00000000E+00  0.00000000E+00  0.00000000E+00
  0.00000000E+00  0.00000000E+00  0.00000000E+00
  0.00000000E+00  0.00000000E+00  0.00000000E+00
  0.00000000E+00  0.00000000E+00  0.00000000E+00
  0.00000000E+00  0.00000000E+00  0.00000000E+00
  0.00000000E+00  0.00000000E+00  0.00000000E+00
  0.00000000E+00  0.00000000E+00  0.00000000E+00
  0.00000000E+00  0.00000000E+00  0.00000000E+00
  0.00000000E+00  0.00000000E+00  0.00000000E+00
  0.00000000E+00  0.00000000E+00  0.00000000E+00
  0.00000000E+00  0.00000000E+00  0.00000000E+00
  0.00000000E+00  0.00000000E+00  0.00000000E+00
  0.00000000E+00  0.00000000E+00  0.00000000E+00
  0.00000000E+00  0.00000000E+00  0.00000000E+00
  0.00000000E+00  0.00000000E+00  0.00000000E+00
  0.00000000E+00  0.00000000E+00  0.00000000E+00
  0.00000000E+00  0.00000000E+00  0.00000000E+00
  0.00000000E+00  0.00000000E+00  0.00000000E+00
  0.00000000E+00  0.00000000E+00  0.00000000E+00
  0.00000000E+00  0.00000000E+00  0.00000000E+00
  0.00000000E+00  0.00000000E+00  0.00000000E+00
  0.00000000E+00  0.00000000E+00  0.00000000E+00
  0.00000000E+00  0.00000000E+00  0.00000000E+00
  0.00000000E+00  0.00000000E+00  0.00000000E+00
  0.00000000E+00  0.00000000E+00  0.00000000E+00
  0.00000000E+00  0.00000000E+00  0.00000000E+00
  0.00000000E+00  0.00000000E+00  0.00000000E+00
  0.00000000E+00  0.00000000E+00  0.00000000E+00
  0.00000000E+00  0.00000000E+00  0.00000000E+00
  0.00000000E+00  0.00000000E+00  0.00000000E+00
  0.00000000E+00  0.00000000E+00  0.00000000E+00
  0.00000000E+00  0.00000000E+00  0.00000000E+00
  0.00000000E+00  0.00000000E+00  0.00000000E+00
  0.00000000E+00  0.00000000E+00  0.00000000E+00
  0.00000000E+00  0.00000000E+00  0.00000000E+00
  0.00000000E+00  0.00000000E+00  0.00000000E+00
  0.00000000E+00  0.00000000E+00  0.00000000E+00
  0.00000000E+00  0.00000000E+00  0.00000000E+00
  0.00000000E+00  0.00000000E+00  0.00000000E+00
  0.00000000E+00  0.00000000E+00  0.00000000E+00
  0.00000000E+00  0.00000000E+00  0.00000000E+00
  0.00000000E+00  0.00000000E+00  0.00000000E+00
  0.00000000E+00  0.00000000E+00  0.00000000E+00
  0.00000000E+00  0.00000000E+00  0.00000000E+00
  0.00000000E+00  0.00000000E+00  0.00000000E+00
  0.00000000E+00  0.00000000E+00  0.00000000E+00
  0.00000000E+00  0.00000000E+00  0.00000000E+00
  0.00000000E+00  0.00000000E+00  0.00000000E+00
  0.00000000E+00  0.00000000E+00  0.00000000E+00
  0.00000000E+00  0.00000000E+00  0.00000000E+00
  0.00000000E+00  0.00000000E+00  0.00000000E+00
