Al Fe  O                                
   1.00000000000000     
    14.3189123190275875    0.0000000000000000    0.0000000000000000
     7.1594561595137938   12.4005418228398376    0.0000000000000000
   0.0000000000   0.0000000000   30.0891769772
   Al   Fe   O 
   122     3     1
Selective dynamics
Direct
0.9666665393251961   0.1426666827703613   0.3323454147   F   F   F
0.1666665393251989   0.1426666827703613   0.3323454147   F   F   F
0.3666665393252018   0.1426666827703613   0.3323454147   F   F   F
0.5666665393251975   0.1426666827703613   0.3323454147   F   F   F
0.7666665393252003   0.1426666827703613   0.3323454147   F   F   F
0.9666665393251961   0.3426666827703642   0.3323454147   F   F   F
0.1666665393251989   0.3426666827703642   0.3323454147   F   F   F
0.3666665393252018   0.3426666827703642   0.3323454147   F   F   F
0.5666665393251975   0.3426666827703642   0.3323454147   F   F   F
0.7666665393252003   0.3426666827703642   0.3323454147   F   F   F
0.9666665393251961   0.5426666827703599   0.3323454147   F   F   F
0.1666665393251989   0.5426666827703599   0.3323454147   F   F   F
0.3666665393252018   0.5426666827703599   0.3323454147   F   F   F
0.5666665393251975   0.5426666827703599   0.3323454147   F   F   F
0.7666665393252003   0.5426666827703599   0.3323454147   F   F   F
0.9666665393251961   0.7426666827703627   0.3323454147   F   F   F
0.1666665393251989   0.7426666827703627   0.3323454147   F   F   F
0.3666665393252018   0.7426666827703627   0.3323454147   F   F   F
0.5666665393251975   0.7426666827703627   0.3323454147   F   F   F
0.7666665393252003   0.7426666827703627   0.3323454147   F   F   F
0.9666665393251961   0.9426666827703656   0.3323454147   F   F   F
0.1666665393251989   0.9426666827703656   0.3323454147   F   F   F
0.3666665393252018   0.9426666827703656   0.3323454147   F   F   F
0.5666665393251975   0.9426666827703656   0.3323454147   F   F   F
0.7666665393252003   0.9426666827703656   0.3323454147   F   F   F
0.0333332059918661   0.0093333494370285   0.4100566991   F   F   F
0.2333332059918689   0.0093333494370285   0.4100566991   F   F   F
0.4333332059918646   0.0093333494370285   0.4100566991   F   F   F
0.6333332059918675   0.0093333494370285   0.4100566991   F   F   F
0.8333332059918632   0.0093333494370285   0.4100566991   F   F   F
0.0333332059918661   0.2093333494370313   0.4100566991   F   F   F
0.2333332059918689   0.2093333494370313   0.4100566991   F   F   F
0.4333332059918646   0.2093333494370313   0.4100566991   F   F   F
0.6333332059918675   0.2093333494370313   0.4100566991   F   F   F
0.8333332059918632   0.2093333494370313   0.4100566991   F   F   F
0.0333332059918661   0.4093333494370270   0.4100566991   F   F   F
0.2333332059918689   0.4093333494370270   0.4100566991   F   F   F
0.4333332059918646   0.4093333494370270   0.4100566991   F   F   F
0.6333332059918675   0.4093333494370270   0.4100566991   F   F   F
0.8333332059918632   0.4093333494370270   0.4100566991   F   F   F
0.0333332059918661   0.6093333494370299   0.4100566991   F   F   F
0.2333332059918689   0.6093333494370299   0.4100566991   F   F   F
0.4333332059918646   0.6093333494370299   0.4100566991   F   F   F
0.6333332059918675   0.6093333494370299   0.4100566991   F   F   F
0.8333332059918632   0.6093333494370299   0.4100566991   F   F   F
0.0333332059918661   0.8093333494370256   0.4100566991   F   F   F
0.2333332059918689   0.8093333494370256   0.4100566991   F   F   F
0.4333332059918646   0.8093333494370256   0.4100566991   F   F   F
0.6333332059918675   0.8093333494370256   0.4100566991   F   F   F
0.8333332059918632   0.8093333494370256   0.4100566991   F   F   F
0.0999998726585360   0.0760000161036984   0.4877679835   F   F   F
0.2999998726585318   0.0760000161036984   0.4877679835   F   F   F
0.4999998726585346   0.0760000161036984   0.4877679835   F   F   F
0.6999998726585304   0.0760000161036984   0.4877679835   F   F   F
0.8999998726585332   0.0760000161036984   0.4877679835   F   F   F
0.0999998726585360   0.2760000161036942   0.4877679835   F   F   F
0.2999998726585318   0.2760000161036942   0.4877679835   F   F   F
0.4999998726585346   0.2760000161036942   0.4877679835   F   F   F
0.6999998726585304   0.2760000161036942   0.4877679835   F   F   F
0.8999998726585332   0.2760000161036942   0.4877679835   F   F   F
0.0999998726585360   0.4760000161036970   0.4877679835   F   F   F
0.2999998726585318   0.4760000161036970   0.4877679835   F   F   F
0.4999998726585346   0.4760000161036970   0.4877679835   F   F   F
0.6999998726585304   0.4760000161036970   0.4877679835   F   F   F
0.8999998726585332   0.4760000161036970   0.4877679835   F   F   F
0.0999998726585360   0.6760000161036928   0.4877679835   F   F   F
0.2999998726585318   0.6760000161036928   0.4877679835   F   F   F
0.4999998726585346   0.6760000161036928   0.4877679835   F   F   F
0.6999998726585304   0.6760000161036928   0.4877679835   F   F   F
0.8999998726585332   0.6760000161036928   0.4877679835   F   F   F
0.0999998726585360   0.8760000161036956   0.4877679835   F   F   F
0.2999998726585318   0.8760000161036956   0.4877679835   F   F   F
0.4999998726585346   0.8760000161036956   0.4877679835   F   F   F
0.6999998726585304   0.8760000161036956   0.4877679835   F   F   F
0.8999998726585332   0.8760000161036956   0.4877679835   F   F   F
0.9706500201761563   0.1399132603725770   0.5653870888   T   T   T
0.1688323979867975   0.1430518436785417   0.5646808014   T   T   T
0.3705491244724721   0.1424316100205384   0.5661567021   T   T   T
0.5661624315678009   0.1410154099727809   0.5662410143   T   T   T
0.7649291105456808   0.1419621075467749   0.5662584384   T   T   T
0.9668455695528129   0.3453171658586034   0.5648115939   T   T   T
0.1669390861742582   0.3415884645132412   0.5632690780   T   T   T
0.3676290235338122   0.3401813588426676   0.5650685775   T   T   T
0.5645658727163090   0.3427902234196420   0.5652738987   T   T   T
0.7693440312806407   0.3393397529674208   0.5642734900   T   T   T
0.9683299224291485   0.5442152830722137   0.5647147933   T   T   T
0.1677203437401669   0.5398307436440144   0.5639982863   T   T   T
0.3644525641782873   0.5468154090569287   0.5690204526   T   T   T
0.5635653251499360   0.5411256467414861   0.5672519291   T   T   T
0.7648646971437391   0.5430887516539845   0.5658273557   T   T   T
0.9701087508052210   0.7366928492093915   0.5646718569   T   T   T
0.1649643327061342   0.7437810445497840   0.5626520133   T   T   T
0.3698400460432183   0.7420524447295256   0.5651174044   T   T   T
0.5668836167557239   0.7408095717449311   0.5658295091   T   T   T
0.7655850158014801   0.7414996912459336   0.5654013461   T   T   T
0.9668217504865387   0.9394602932364453   0.5648164141   T   T   T
0.1692136102150765   0.9390240167777476   0.5646624812   T   T   T
0.3689389275406180   0.9409779522112178   0.5650380507   T   T   T
0.5676852259827186   0.9389792824600931   0.5650698285   T   T   T
0.7665850639048236   0.9399017580826043   0.5653746038   T   T   T
0.0378028098574839   0.0049149585635169   0.6426997046   T   T   T
0.2362918020052424   0.0072266627921064   0.6432188623   T   T   T
0.4315255794053205   0.0125595713791979   0.6441066186   T   T   T
0.6312988864717154   0.0103269426074550   0.6433207714   T   T   T
0.8350734850106355   0.0052957630140764   0.6438130467   T   T   T
0.0373418543521850   0.2075794954412363   0.6426361156   T   T   T
0.2355221010350503   0.2167603939689108   0.6423167103   T   T   T
0.4212589844467060   0.2257887395468088   0.6456381714   T   T   T
0.6310365118867060   0.2085613952219361   0.6436171890   T   T   T
0.8341538992632023   0.2053038078119333   0.6429887515   T   T   T
0.0421608433324235   0.4096619844456826   0.6419880917   T   T   T
0.6262843260729650   0.4076308387222736   0.6455743131   T   T   T
0.8387601273332623   0.4064785610163656   0.6437012792   T   T   T
0.0599651921087226   0.5920436564759943   0.6425602556   T   T   T
0.4086010296231282   0.6114226086628027   0.6513658017   T   T   T
0.6288962083020669   0.6035589440812132   0.6442292999   T   T   T
0.8400416035402871   0.6045008754610919   0.6434827052   T   T   T
0.0382018196336258   0.8012686843372213   0.6421920152   T   T   T
0.2278814831668726   0.8012997497345147   0.6419461425   T   T   T
0.4301785482486485   0.8029646292186593   0.6446875395   T   T   T
0.6356899014991958   0.8045673153043863   0.6442898153   T   T   T
0.8400035436334852   0.8029336873792903   0.6429555359   T   T   T
0.2290883156387826   0.4048470795705901   0.6283360565   T   T   T
0.4223017652256031   0.4005956099709594   0.6270057711   T   T   T
0.2165892326286237   0.6230057624947984   0.6271565696   T   T   T
0.4860200915199255   0.4788795036406391   0.6676545853   T   T   T
 
  0.00000000E+00  0.00000000E+00  0.00000000E+00
  0.00000000E+00  0.00000000E+00  0.00000000E+00
  0.00000000E+00  0.00000000E+00  0.00000000E+00
  0.00000000E+00  0.00000000E+00  0.00000000E+00
  0.00000000E+00  0.00000000E+00  0.00000000E+00
  0.00000000E+00  0.00000000E+00  0.00000000E+00
  0.00000000E+00  0.00000000E+00  0.00000000E+00
  0.00000000E+00  0.00000000E+00  0.00000000E+00
  0.00000000E+00  0.00000000E+00  0.00000000E+00
  0.00000000E+00  0.00000000E+00  0.00000000E+00
  0.00000000E+00  0.00000000E+00  0.00000000E+00
  0.00000000E+00  0.00000000E+00  0.00000000E+00
  0.00000000E+00  0.00000000E+00  0.00000000E+00
  0.00000000E+00  0.00000000E+00  0.00000000E+00
  0.00000000E+00  0.00000000E+00  0.00000000E+00
  0.00000000E+00  0.00000000E+00  0.00000000E+00
  0.00000000E+00  0.00000000E+00  0.00000000E+00
  0.00000000E+00  0.00000000E+00  0.00000000E+00
  0.00000000E+00  0.00000000E+00  0.00000000E+00
  0.00000000E+00  0.00000000E+00  0.00000000E+00
  0.00000000E+00  0.00000000E+00  0.00000000E+00
  0.00000000E+00  0.00000000E+00  0.00000000E+00
  0.00000000E+00  0.00000000E+00  0.00000000E+00
  0.00000000E+00  0.00000000E+00  0.00000000E+00
  0.00000000E+00  0.00000000E+00  0.00000000E+00
  0.00000000E+00  0.00000000E+00  0.00000000E+00
  0.00000000E+00  0.00000000E+00  0.00000000E+00
  0.00000000E+00  0.00000000E+00  0.00000000E+00
  0.00000000E+00  0.00000000E+00  0.00000000E+00
  0.00000000E+00  0.00000000E+00  0.00000000E+00
  0.00000000E+00  0.00000000E+00  0.00000000E+00
  0.00000000E+00  0.00000000E+00  0.00000000E+00
  0.00000000E+00  0.00000000E+00  0.00000000E+00
  0.00000000E+00  0.00000000E+00  0.00000000E+00
  0.00000000E+00  0.00000000E+00  0.00000000E+00
  0.00000000E+00  0.00000000E+00  0.00000000E+00
  0.00000000E+00  0.00000000E+00  0.00000000E+00
  0.00000000E+00  0.00000000E+00  0.00000000E+00
  0.00000000E+00  0.00000000E+00  0.00000000E+00
  0.00000000E+00  0.00000000E+00  0.00000000E+00
  0.00000000E+00  0.00000000E+00  0.00000000E+00
  0.00000000E+00  0.00000000E+00  0.00000000E+00
  0.00000000E+00  0.00000000E+00  0.00000000E+00
  0.00000000E+00  0.00000000E+00  0.00000000E+00
  0.00000000E+00  0.00000000E+00  0.00000000E+00
  0.00000000E+00  0.00000000E+00  0.00000000E+00
  0.00000000E+00  0.00000000E+00  0.00000000E+00
  0.00000000E+00  0.00000000E+00  0.00000000E+00
  0.00000000E+00  0.00000000E+00  0.00000000E+00
  0.00000000E+00  0.00000000E+00  0.00000000E+00
  0.00000000E+00  0.00000000E+00  0.00000000E+00
  0.00000000E+00  0.00000000E+00  0.00000000E+00
  0.00000000E+00  0.00000000E+00  0.00000000E+00
  0.00000000E+00  0.00000000E+00  0.00000000E+00
  0.00000000E+00  0.00000000E+00  0.00000000E+00
  0.00000000E+00  0.00000000E+00  0.00000000E+00
  0.00000000E+00  0.00000000E+00  0.00000000E+00
  0.00000000E+00  0.00000000E+00  0.00000000E+00
  0.00000000E+00  0.00000000E+00  0.00000000E+00
  0.00000000E+00  0.00000000E+00  0.00000000E+00
  0.00000000E+00  0.00000000E+00  0.00000000E+00
  0.00000000E+00  0.00000000E+00  0.00000000E+00
  0.00000000E+00  0.00000000E+00  0.00000000E+00
  0.00000000E+00  0.00000000E+00  0.00000000E+00
  0.00000000E+00  0.00000000E+00  0.00000000E+00
  0.00000000E+00  0.00000000E+00  0.00000000E+00
  0.00000000E+00  0.00000000E+00  0.00000000E+00
  0.00000000E+00  0.00000000E+00  0.00000000E+00
  0.00000000E+00  0.00000000E+00  0.00000000E+00
  0.00000000E+00  0.00000000E+00  0.00000000E+00
  0.00000000E+00  0.00000000E+00  0.00000000E+00
  0.00000000E+00  0.00000000E+00  0.00000000E+00
  0.00000000E+00  0.00000000E+00  0.00000000E+00
  0.00000000E+00  0.00000000E+00  0.00000000E+00
  0.00000000E+00  0.00000000E+00  0.00000000E+00
  0.00000000E+00  0.00000000E+00  0.00000000E+00
  0.00000000E+00  0.00000000E+00  0.00000000E+00
  0.00000000E+00  0.00000000E+00  0.00000000E+00
  0.00000000E+00  0.00000000E+00  0.00000000E+00
  0.00000000E+00  0.00000000E+00  0.00000000E+00
  0.00000000E+00  0.00000000E+00  0.00000000E+00
  0.00000000E+00  0.00000000E+00  0.00000000E+00
  0.00000000E+00  0.00000000E+00  0.00000000E+00
  0.00000000E+00  0.00000000E+00  0.00000000E+00
  0.00000000E+00  0.00000000E+00  0.00000000E+00
  0.00000000E+00  0.00000000E+00  0.00000000E+00
  0.00000000E+00  0.00000000E+00  0.00000000E+00
  0.00000000E+00  0.00000000E+00  0.00000000E+00
  0.00000000E+00  0.00000000E+00  0.00000000E+00
  0.00000000E+00  0.00000000E+00  0.00000000E+00
  0.00000000E+00  0.00000000E+00  0.00000000E+00
  0.00000000E+00  0.00000000E+00  0.00000000E+00
  0.00000000E+00  0.00000000E+00  0.00000000E+00
  0.00000000E+00  0.00000000E+00  0.00000000E+00
  0.00000000E+00  0.00000000E+00  0.00000000E+00
  0.00000000E+00  0.00000000E+00  0.00000000E+00
  0.00000000E+00  0.00000000E+00  0.00000000E+00
  0.00000000E+00  0.00000000E+00  0.00000000E+00
  0.00000000E+00  0.00000000E+00  0.00000000E+00
  0.00000000E+00  0.00000000E+00  0.00000000E+00
  0.00000000E+00  0.00000000E+00  0.00000000E+00
  0.00000000E+00  0.00000000E+00  0.00000000E+00
  0.00000000E+00  0.00000000E+00  0.00000000E+00
  0.00000000E+00  0.00000000E+00  0.00000000E+00
  0.00000000E+00  0.00000000E+00  0.00000000E+00
  0.00000000E+00  0.00000000E+00  0.00000000E+00
  0.00000000E+00  0.00000000E+00  0.00000000E+00
  0.00000000E+00  0.00000000E+00  0.00000000E+00
  0.00000000E+00  0.00000000E+00  0.00000000E+00
  0.00000000E+00  0.00000000E+00  0.00000000E+00
  0.00000000E+00  0.00000000E+00  0.00000000E+00
  0.00000000E+00  0.00000000E+00  0.00000000E+00
  0.00000000E+00  0.00000000E+00  0.00000000E+00
  0.00000000E+00  0.00000000E+00  0.00000000E+00
  0.00000000E+00  0.00000000E+00  0.00000000E+00
  0.00000000E+00  0.00000000E+00  0.00000000E+00
  0.00000000E+00  0.00000000E+00  0.00000000E+00
  0.00000000E+00  0.00000000E+00  0.00000000E+00
  0.00000000E+00  0.00000000E+00  0.00000000E+00
  0.00000000E+00  0.00000000E+00  0.00000000E+00
  0.00000000E+00  0.00000000E+00  0.00000000E+00
  0.00000000E+00  0.00000000E+00  0.00000000E+00
  0.00000000E+00  0.00000000E+00  0.00000000E+00
  0.00000000E+00  0.00000000E+00  0.00000000E+00
  0.00000000E+00  0.00000000E+00  0.00000000E+00
  0.00000000E+00  0.00000000E+00  0.00000000E+00
