Al  C  O  H                             
   1.00000000000000     
    14.3189123190275875    0.0000000000000000    0.0000000000000000
     7.1594561595137938   12.4005418228398376    0.0000000000000000
   0.0000000000   0.0000000000   33.5149722174
   Al   C    O    H 
   125     1     1     3
Selective dynamics
Direct
0.9333333333333300   0.1333333333333329   0.2983741098   F   F   F
0.1333333333333329   0.1333333333333329   0.2983741098   F   F   F
0.3333333333333357   0.1333333333333329   0.2983741098   F   F   F
0.5333333333333314   0.1333333333333329   0.2983741098   F   F   F
0.7333333333333343   0.1333333333333329   0.2983741098   F   F   F
0.9333333333333300   0.3333333333333357   0.2983741098   F   F   F
0.1333333333333329   0.3333333333333357   0.2983741098   F   F   F
0.3333333333333357   0.3333333333333357   0.2983741098   F   F   F
0.5333333333333314   0.3333333333333357   0.2983741098   F   F   F
0.7333333333333343   0.3333333333333357   0.2983741098   F   F   F
0.9333333333333300   0.5333333333333314   0.2983741098   F   F   F
0.1333333333333329   0.5333333333333314   0.2983741098   F   F   F
0.3333333333333357   0.5333333333333314   0.2983741098   F   F   F
0.5333333333333314   0.5333333333333314   0.2983741098   F   F   F
0.7333333333333343   0.5333333333333314   0.2983741098   F   F   F
0.9333333333333300   0.7333333333333343   0.2983741098   F   F   F
0.1333333333333329   0.7333333333333343   0.2983741098   F   F   F
0.3333333333333357   0.7333333333333343   0.2983741098   F   F   F
0.5333333333333314   0.7333333333333343   0.2983741098   F   F   F
0.7333333333333343   0.7333333333333343   0.2983741098   F   F   F
0.9333333333333300   0.9333333333333371   0.2983741098   F   F   F
0.1333333333333329   0.9333333333333371   0.2983741098   F   F   F
0.3333333333333357   0.9333333333333371   0.2983741098   F   F   F
0.5333333333333314   0.9333333333333371   0.2983741098   F   F   F
0.7333333333333343   0.9333333333333371   0.2983741098   F   F   F
0.0000000000000000   0.0000000000000000   0.3681419907   F   F   F
0.2000000000000028   0.0000000000000000   0.3681419907   F   F   F
0.3999999999999986   0.0000000000000000   0.3681419907   F   F   F
0.6000000000000014   0.0000000000000000   0.3681419907   F   F   F
0.7999999999999972   0.0000000000000000   0.3681419907   F   F   F
0.0000000000000000   0.2000000000000028   0.3681419907   F   F   F
0.2000000000000028   0.2000000000000028   0.3681419907   F   F   F
0.3999999999999986   0.2000000000000028   0.3681419907   F   F   F
0.6000000000000014   0.2000000000000028   0.3681419907   F   F   F
0.7999999999999972   0.2000000000000028   0.3681419907   F   F   F
0.0000000000000000   0.3999999999999986   0.3681419907   F   F   F
0.2000000000000028   0.3999999999999986   0.3681419907   F   F   F
0.3999999999999986   0.3999999999999986   0.3681419907   F   F   F
0.6000000000000014   0.3999999999999986   0.3681419907   F   F   F
0.7999999999999972   0.3999999999999986   0.3681419907   F   F   F
0.0000000000000000   0.6000000000000014   0.3681419907   F   F   F
0.2000000000000028   0.6000000000000014   0.3681419907   F   F   F
0.3999999999999986   0.6000000000000014   0.3681419907   F   F   F
0.6000000000000014   0.6000000000000014   0.3681419907   F   F   F
0.7999999999999972   0.6000000000000014   0.3681419907   F   F   F
0.0000000000000000   0.7999999999999972   0.3681419907   F   F   F
0.2000000000000028   0.7999999999999972   0.3681419907   F   F   F
0.3999999999999986   0.7999999999999972   0.3681419907   F   F   F
0.6000000000000014   0.7999999999999972   0.3681419907   F   F   F
0.7999999999999972   0.7999999999999972   0.3681419907   F   F   F
0.0666666666666700   0.0666666666666700   0.4379098716   F   F   F
0.2666666666666657   0.0666666666666700   0.4379098716   F   F   F
0.4666666666666686   0.0666666666666700   0.4379098716   F   F   F
0.6666666666666643   0.0666666666666700   0.4379098716   F   F   F
0.8666666666666671   0.0666666666666700   0.4379098716   F   F   F
0.0666666666666700   0.2666666666666657   0.4379098716   F   F   F
0.2666666666666657   0.2666666666666657   0.4379098716   F   F   F
0.4666666666666686   0.2666666666666657   0.4379098716   F   F   F
0.6666666666666643   0.2666666666666657   0.4379098716   F   F   F
0.8666666666666671   0.2666666666666657   0.4379098716   F   F   F
0.0666666666666700   0.4666666666666686   0.4379098716   F   F   F
0.2666666666666657   0.4666666666666686   0.4379098716   F   F   F
0.4666666666666686   0.4666666666666686   0.4379098716   F   F   F
0.6666666666666643   0.4666666666666686   0.4379098716   F   F   F
0.8666666666666671   0.4666666666666686   0.4379098716   F   F   F
0.0666666666666700   0.6666666666666643   0.4379098716   F   F   F
0.2666666666666657   0.6666666666666643   0.4379098716   F   F   F
0.4666666666666686   0.6666666666666643   0.4379098716   F   F   F
0.6666666666666643   0.6666666666666643   0.4379098716   F   F   F
0.8666666666666671   0.6666666666666643   0.4379098716   F   F   F
0.0666666666666700   0.8666666666666671   0.4379098716   F   F   F
0.2666666666666657   0.8666666666666671   0.4379098716   F   F   F
0.4666666666666686   0.8666666666666671   0.4379098716   F   F   F
0.6666666666666643   0.8666666666666671   0.4379098716   F   F   F
0.8666666666666671   0.8666666666666671   0.4379098716   F   F   F
0.9334339074060738   0.1324632464748564   0.5076045755   T   T   T
0.1332011632806875   0.1327281418198937   0.5075920573   T   T   T
0.3330876100269513   0.1332010586565356   0.5074610746   T   T   T
0.5335351725528773   0.1320914376064092   0.5073997943   T   T   T
0.7330601940923622   0.1329096531699593   0.5074323180   T   T   T
0.9333767308262185   0.3325088759470031   0.5075322716   T   T   T
0.1336224475993404   0.3326704938465782   0.5074621864   T   T   T
0.3342618078021879   0.3337487667206157   0.5082401178   T   T   T
0.5312016801824890   0.3335749049953068   0.5084238777   T   T   T
0.7332427758165219   0.3325146190940529   0.5073622789   T   T   T
0.9330979391107970   0.5326729299184814   0.5074857681   T   T   T
0.1324318765407460   0.5331471574999399   0.5073509003   T   T   T
0.3340161750200678   0.5307457600312503   0.5084200963   T   T   T
0.5335300917165577   0.5330058523185303   0.5071154257   T   T   T
0.7333487737461660   0.5326060733256580   0.5074910949   T   T   T
0.9329773325695905   0.7328952624122492   0.5074588930   T   T   T
0.1333068798964888   0.7326996904174792   0.5073990364   T   T   T
0.3329761045343229   0.7328308535863689   0.5073564029   T   T   T
0.5331042105572266   0.7328606199557536   0.5074756754   T   T   T
0.7331303514316969   0.7326242165159458   0.5075523745   T   T   T
0.9331609410305286   0.9327684271564696   0.5075598431   T   T   T
0.1328873158245668   0.9329792280946916   0.5075904695   T   T   T
0.3329724500731625   0.9328791975886245   0.5075104540   T   T   T
0.5331007930658609   0.9326767821328247   0.5074774504   T   T   T
0.7333114407566446   0.9325788052429151   0.5074625384   T   T   T
-0.0004454006340236   -0.0013438219413413   0.5778205999   T   T   T
0.1996076975677271   -0.0012219074566655   0.5777324332   T   T   T
0.3996570868373887   -0.0008809127310242   0.5777687424   T   T   T
0.5999587394156144   -0.0020198677851156   0.5775504107   T   T   T
0.7995145209841774   -0.0012877016470761   0.5777746152   T   T   T
-0.0001954715823928   0.1986135279974872   0.5777362830   T   T   T
0.1995643943585846   0.1986419163291062   0.5776574498   T   T   T
0.4004807016134533   0.1979269621938907   0.5769916515   T   T   T
0.6009047081540183   0.1971203647760804   0.5769904804   T   T   T
0.8001593594210881   0.1985467818979951   0.5776601574   T   T   T
-0.0000293258077103   0.3987651164538614   0.5777980523   T   T   T
0.1986477161683807   0.3996083162303271   0.5769285099   T   T   T
0.3996035413692467   0.3985626283071997   0.5890677198   T   T   T
0.6012713571143580   0.3994686294990334   0.5766783516   T   T   T
0.8000428624977914   0.3987106331756465   0.5776640413   T   T   T
-0.0013203977753173   0.5991597238156892   0.5775713844   T   T   T
0.1977877698612912   0.6001882509918723   0.5769096436   T   T   T
0.4002625119227329   0.6005715741349680   0.5766355503   T   T   T
0.6001079177521715   0.5991834426495856   0.5775328264   T   T   T
0.7996254670116058   0.5988921050263050   0.5777606875   T   T   T
-0.0006499931590331   0.7987815268773549   0.5777254869   T   T   T
0.1993537671735513   0.7992408909024258   0.5776497113   T   T   T
0.3996785649974537   0.7991052633886242   0.5776318528   T   T   T
0.5997739368410110   0.7987407642986907   0.5777318711   T   T   T
0.7994711506341663   0.7987920355923745   0.5776370250   T   T   T
0.3824040795479453   0.3753259419614189   0.6753060732   T   T   T
0.4092043791793894   0.4129188509805751   0.6405630748   T   T   T
0.2954819879464172   0.4036187927826190   0.6767858537   T   T   T
0.4260420494702895   0.2866325770209781   0.6766572499   T   T   T
0.4043419277841621   0.4055668920794623   0.7016258902   T   T   T
 
  0.00000000E+00  0.00000000E+00  0.00000000E+00
  0.00000000E+00  0.00000000E+00  0.00000000E+00
  0.00000000E+00  0.00000000E+00  0.00000000E+00
  0.00000000E+00  0.00000000E+00  0.00000000E+00
  0.00000000E+00  0.00000000E+00  0.00000000E+00
  0.00000000E+00  0.00000000E+00  0.00000000E+00
  0.00000000E+00  0.00000000E+00  0.00000000E+00
  0.00000000E+00  0.00000000E+00  0.00000000E+00
  0.00000000E+00  0.00000000E+00  0.00000000E+00
  0.00000000E+00  0.00000000E+00  0.00000000E+00
  0.00000000E+00  0.00000000E+00  0.00000000E+00
  0.00000000E+00  0.00000000E+00  0.00000000E+00
  0.00000000E+00  0.00000000E+00  0.00000000E+00
  0.00000000E+00  0.00000000E+00  0.00000000E+00
  0.00000000E+00  0.00000000E+00  0.00000000E+00
  0.00000000E+00  0.00000000E+00  0.00000000E+00
  0.00000000E+00  0.00000000E+00  0.00000000E+00
  0.00000000E+00  0.00000000E+00  0.00000000E+00
  0.00000000E+00  0.00000000E+00  0.00000000E+00
  0.00000000E+00  0.00000000E+00  0.00000000E+00
  0.00000000E+00  0.00000000E+00  0.00000000E+00
  0.00000000E+00  0.00000000E+00  0.00000000E+00
  0.00000000E+00  0.00000000E+00  0.00000000E+00
  0.00000000E+00  0.00000000E+00  0.00000000E+00
  0.00000000E+00  0.00000000E+00  0.00000000E+00
  0.00000000E+00  0.00000000E+00  0.00000000E+00
  0.00000000E+00  0.00000000E+00  0.00000000E+00
  0.00000000E+00  0.00000000E+00  0.00000000E+00
  0.00000000E+00  0.00000000E+00  0.00000000E+00
  0.00000000E+00  0.00000000E+00  0.00000000E+00
  0.00000000E+00  0.00000000E+00  0.00000000E+00
  0.00000000E+00  0.00000000E+00  0.00000000E+00
  0.00000000E+00  0.00000000E+00  0.00000000E+00
  0.00000000E+00  0.00000000E+00  0.00000000E+00
  0.00000000E+00  0.00000000E+00  0.00000000E+00
  0.00000000E+00  0.00000000E+00  0.00000000E+00
  0.00000000E+00  0.00000000E+00  0.00000000E+00
  0.00000000E+00  0.00000000E+00  0.00000000E+00
  0.00000000E+00  0.00000000E+00  0.00000000E+00
  0.00000000E+00  0.00000000E+00  0.00000000E+00
  0.00000000E+00  0.00000000E+00  0.00000000E+00
  0.00000000E+00  0.00000000E+00  0.00000000E+00
  0.00000000E+00  0.00000000E+00  0.00000000E+00
  0.00000000E+00  0.00000000E+00  0.00000000E+00
  0.00000000E+00  0.00000000E+00  0.00000000E+00
  0.00000000E+00  0.00000000E+00  0.00000000E+00
  0.00000000E+00  0.00000000E+00  0.00000000E+00
  0.00000000E+00  0.00000000E+00  0.00000000E+00
  0.00000000E+00  0.00000000E+00  0.00000000E+00
  0.00000000E+00  0.00000000E+00  0.00000000E+00
  0.00000000E+00  0.00000000E+00  0.00000000E+00
  0.00000000E+00  0.00000000E+00  0.00000000E+00
  0.00000000E+00  0.00000000E+00  0.00000000E+00
  0.00000000E+00  0.00000000E+00  0.00000000E+00
  0.00000000E+00  0.00000000E+00  0.00000000E+00
  0.00000000E+00  0.00000000E+00  0.00000000E+00
  0.00000000E+00  0.00000000E+00  0.00000000E+00
  0.00000000E+00  0.00000000E+00  0.00000000E+00
  0.00000000E+00  0.00000000E+00  0.00000000E+00
  0.00000000E+00  0.00000000E+00  0.00000000E+00
  0.00000000E+00  0.00000000E+00  0.00000000E+00
  0.00000000E+00  0.00000000E+00  0.00000000E+00
  0.00000000E+00  0.00000000E+00  0.00000000E+00
  0.00000000E+00  0.00000000E+00  0.00000000E+00
  0.00000000E+00  0.00000000E+00  0.00000000E+00
  0.00000000E+00  0.00000000E+00  0.00000000E+00
  0.00000000E+00  0.00000000E+00  0.00000000E+00
  0.00000000E+00  0.00000000E+00  0.00000000E+00
  0.00000000E+00  0.00000000E+00  0.00000000E+00
  0.00000000E+00  0.00000000E+00  0.00000000E+00
  0.00000000E+00  0.00000000E+00  0.00000000E+00
  0.00000000E+00  0.00000000E+00  0.00000000E+00
  0.00000000E+00  0.00000000E+00  0.00000000E+00
  0.00000000E+00  0.00000000E+00  0.00000000E+00
  0.00000000E+00  0.00000000E+00  0.00000000E+00
  0.00000000E+00  0.00000000E+00  0.00000000E+00
  0.00000000E+00  0.00000000E+00  0.00000000E+00
  0.00000000E+00  0.00000000E+00  0.00000000E+00
  0.00000000E+00  0.00000000E+00  0.00000000E+00
  0.00000000E+00  0.00000000E+00  0.00000000E+00
  0.00000000E+00  0.00000000E+00  0.00000000E+00
  0.00000000E+00  0.00000000E+00  0.00000000E+00
  0.00000000E+00  0.00000000E+00  0.00000000E+00
  0.00000000E+00  0.00000000E+00  0.00000000E+00
  0.00000000E+00  0.00000000E+00  0.00000000E+00
  0.00000000E+00  0.00000000E+00  0.00000000E+00
  0.00000000E+00  0.00000000E+00  0.00000000E+00
  0.00000000E+00  0.00000000E+00  0.00000000E+00
  0.00000000E+00  0.00000000E+00  0.00000000E+00
  0.00000000E+00  0.00000000E+00  0.00000000E+00
  0.00000000E+00  0.00000000E+00  0.00000000E+00
  0.00000000E+00  0.00000000E+00  0.00000000E+00
  0.00000000E+00  0.00000000E+00  0.00000000E+00
  0.00000000E+00  0.00000000E+00  0.00000000E+00
  0.00000000E+00  0.00000000E+00  0.00000000E+00
  0.00000000E+00  0.00000000E+00  0.00000000E+00
  0.00000000E+00  0.00000000E+00  0.00000000E+00
  0.00000000E+00  0.00000000E+00  0.00000000E+00
  0.00000000E+00  0.00000000E+00  0.00000000E+00
  0.00000000E+00  0.00000000E+00  0.00000000E+00
  0.00000000E+00  0.00000000E+00  0.00000000E+00
  0.00000000E+00  0.00000000E+00  0.00000000E+00
  0.00000000E+00  0.00000000E+00  0.00000000E+00
  0.00000000E+00  0.00000000E+00  0.00000000E+00
  0.00000000E+00  0.00000000E+00  0.00000000E+00
  0.00000000E+00  0.00000000E+00  0.00000000E+00
  0.00000000E+00  0.00000000E+00  0.00000000E+00
  0.00000000E+00  0.00000000E+00  0.00000000E+00
  0.00000000E+00  0.00000000E+00  0.00000000E+00
  0.00000000E+00  0.00000000E+00  0.00000000E+00
  0.00000000E+00  0.00000000E+00  0.00000000E+00
  0.00000000E+00  0.00000000E+00  0.00000000E+00
  0.00000000E+00  0.00000000E+00  0.00000000E+00
  0.00000000E+00  0.00000000E+00  0.00000000E+00
  0.00000000E+00  0.00000000E+00  0.00000000E+00
  0.00000000E+00  0.00000000E+00  0.00000000E+00
  0.00000000E+00  0.00000000E+00  0.00000000E+00
  0.00000000E+00  0.00000000E+00  0.00000000E+00
  0.00000000E+00  0.00000000E+00  0.00000000E+00
  0.00000000E+00  0.00000000E+00  0.00000000E+00
  0.00000000E+00  0.00000000E+00  0.00000000E+00
  0.00000000E+00  0.00000000E+00  0.00000000E+00
  0.00000000E+00  0.00000000E+00  0.00000000E+00
  0.00000000E+00  0.00000000E+00  0.00000000E+00
  0.00000000E+00  0.00000000E+00  0.00000000E+00
  0.00000000E+00  0.00000000E+00  0.00000000E+00
  0.00000000E+00  0.00000000E+00  0.00000000E+00
  0.00000000E+00  0.00000000E+00  0.00000000E+00
  0.00000000E+00  0.00000000E+00  0.00000000E+00
  0.00000000E+00  0.00000000E+00  0.00000000E+00
