Al Fe Al  C  O  H                       
   1.00000000000000     
    14.3189123190275875    0.0000000000000000    0.0000000000000000
     7.1594561595137938   12.4005418228398376    0.0000000000000000
   0.0000000000   0.0000000000   31.7106208786
   Al   Fe   Al   C    O    H 
   112     1    12     1     1     1
Selective dynamics
Direct
0.9333333333333300   0.1333333333333329   0.3153517567   F   F   F
0.1333333333333329   0.1333333333333329   0.3153517567   F   F   F
0.3333333333333357   0.1333333333333329   0.3153517567   F   F   F
0.5333333333333314   0.1333333333333329   0.3153517567   F   F   F
0.7333333333333343   0.1333333333333329   0.3153517567   F   F   F
0.9333333333333300   0.3333333333333357   0.3153517567   F   F   F
0.1333333333333329   0.3333333333333357   0.3153517567   F   F   F
0.3333333333333357   0.3333333333333357   0.3153517567   F   F   F
0.5333333333333314   0.3333333333333357   0.3153517567   F   F   F
0.7333333333333343   0.3333333333333357   0.3153517567   F   F   F
0.9333333333333300   0.5333333333333314   0.3153517567   F   F   F
0.1333333333333329   0.5333333333333314   0.3153517567   F   F   F
0.3333333333333357   0.5333333333333314   0.3153517567   F   F   F
0.5333333333333314   0.5333333333333314   0.3153517567   F   F   F
0.7333333333333343   0.5333333333333314   0.3153517567   F   F   F
0.9333333333333300   0.7333333333333343   0.3153517567   F   F   F
0.1333333333333329   0.7333333333333343   0.3153517567   F   F   F
0.3333333333333357   0.7333333333333343   0.3153517567   F   F   F
0.5333333333333314   0.7333333333333343   0.3153517567   F   F   F
0.7333333333333343   0.7333333333333343   0.3153517567   F   F   F
0.9333333333333300   0.9333333333333371   0.3153517567   F   F   F
0.1333333333333329   0.9333333333333371   0.3153517567   F   F   F
0.3333333333333357   0.9333333333333371   0.3153517567   F   F   F
0.5333333333333314   0.9333333333333371   0.3153517567   F   F   F
0.7333333333333343   0.9333333333333371   0.3153517567   F   F   F
0.0000000000000000   0.0000000000000000   0.3890894674   F   F   F
0.2000000000000028   0.0000000000000000   0.3890894674   F   F   F
0.3999999999999986   0.0000000000000000   0.3890894674   F   F   F
0.6000000000000014   0.0000000000000000   0.3890894674   F   F   F
0.7999999999999972   0.0000000000000000   0.3890894674   F   F   F
0.0000000000000000   0.2000000000000028   0.3890894674   F   F   F
0.2000000000000028   0.2000000000000028   0.3890894674   F   F   F
0.3999999999999986   0.2000000000000028   0.3890894674   F   F   F
0.6000000000000014   0.2000000000000028   0.3890894674   F   F   F
0.7999999999999972   0.2000000000000028   0.3890894674   F   F   F
0.0000000000000000   0.3999999999999986   0.3890894674   F   F   F
0.2000000000000028   0.3999999999999986   0.3890894674   F   F   F
0.3999999999999986   0.3999999999999986   0.3890894674   F   F   F
0.6000000000000014   0.3999999999999986   0.3890894674   F   F   F
0.7999999999999972   0.3999999999999986   0.3890894674   F   F   F
0.0000000000000000   0.6000000000000014   0.3890894674   F   F   F
0.2000000000000028   0.6000000000000014   0.3890894674   F   F   F
0.3999999999999986   0.6000000000000014   0.3890894674   F   F   F
0.6000000000000014   0.6000000000000014   0.3890894674   F   F   F
0.7999999999999972   0.6000000000000014   0.3890894674   F   F   F
0.0000000000000000   0.7999999999999972   0.3890894674   F   F   F
0.2000000000000028   0.7999999999999972   0.3890894674   F   F   F
0.3999999999999986   0.7999999999999972   0.3890894674   F   F   F
0.6000000000000014   0.7999999999999972   0.3890894674   F   F   F
0.7999999999999972   0.7999999999999972   0.3890894674   F   F   F
0.0666666666666700   0.0666666666666700   0.4628271782   F   F   F
0.2666666666666657   0.0666666666666700   0.4628271782   F   F   F
0.4666666666666686   0.0666666666666700   0.4628271782   F   F   F
0.6666666666666643   0.0666666666666700   0.4628271782   F   F   F
0.8666666666666671   0.0666666666666700   0.4628271782   F   F   F
0.0666666666666700   0.2666666666666657   0.4628271782   F   F   F
0.2666666666666657   0.2666666666666657   0.4628271782   F   F   F
0.4666666666666686   0.2666666666666657   0.4628271782   F   F   F
0.6666666666666643   0.2666666666666657   0.4628271782   F   F   F
0.8666666666666671   0.2666666666666657   0.4628271782   F   F   F
0.0666666666666700   0.4666666666666686   0.4628271782   F   F   F
0.2666666666666657   0.4666666666666686   0.4628271782   F   F   F
0.4666666666666686   0.4666666666666686   0.4628271782   F   F   F
0.6666666666666643   0.4666666666666686   0.4628271782   F   F   F
0.8666666666666671   0.4666666666666686   0.4628271782   F   F   F
0.0666666666666700   0.6666666666666643   0.4628271782   F   F   F
0.2666666666666657   0.6666666666666643   0.4628271782   F   F   F
0.4666666666666686   0.6666666666666643   0.4628271782   F   F   F
0.6666666666666643   0.6666666666666643   0.4628271782   F   F   F
0.8666666666666671   0.6666666666666643   0.4628271782   F   F   F
0.0666666666666700   0.8666666666666671   0.4628271782   F   F   F
0.2666666666666657   0.8666666666666671   0.4628271782   F   F   F
0.4666666666666686   0.8666666666666671   0.4628271782   F   F   F
0.6666666666666643   0.8666666666666671   0.4628271782   F   F   F
0.8666666666666671   0.8666666666666671   0.4628271782   F   F   F
0.9322130124957076   0.1338720454935140   0.5363934110   T   T   T
0.1339946920454626   0.1337698075235363   0.5364011627   T   T   T
0.3342043547510530   0.1345342409199008   0.5364958296   T   T   T
0.5345114738398968   0.1308107850931396   0.5344087077   T   T   T
0.7317892877869839   0.1335906285942544   0.5357644296   T   T   T
0.9335966796562426   0.3326627268511528   0.5364488564   T   T   T
0.1351635038879338   0.3339642727988264   0.5364683263   T   T   T
0.3355836940194873   0.3343817279163612   0.5357122004   T   T   T
0.5304873774870142   0.3387326561441726   0.5384169001   T   T   T
0.7313341370955728   0.3343275654622340   0.5365033421   T   T   T
0.9328277192921526   0.5328330839120807   0.5366671471   T   T   T
0.1305491155486554   0.5344174093118724   0.5349548193   T   T   T
0.3340055525703416   0.5295817159358756   0.5355232084   T   T   T
0.5356943641924505   0.5335448829447500   0.5348780625   T   T   T
0.7341836488692535   0.5330358300135136   0.5368967274   T   T   T
0.9325506898365322   0.7335468768799381   0.5366812587   T   T   T
0.1344642948630367   0.7306977851752218   0.5364356251   T   T   T
0.3339505211836375   0.7314046263693391   0.5359496812   T   T   T
0.5326348244744066   0.7341800694283073   0.5367029130   T   T   T
0.7330848255488861   0.7329900413015010   0.5371596309   T   T   T
0.9336413271905466   0.9330749732043135   0.5363358325   T   T   T
0.1340808096586961   0.9315777429376730   0.5363865413   T   T   T
0.3327103640311545   0.9337927554917130   0.5364184303   T   T   T
0.5328201196787489   0.9330908295293165   0.5366491036   T   T   T
0.7338897520821664   0.9320945320904157   0.5365128756   T   T   T
0.0000942339825611   -0.0011662305801721   0.6103659548   T   T   T
0.1994474623794333   -0.0000872836591003   0.6102844812   T   T   T
0.3995142782505934   0.0016919372704556   0.6105460476   T   T   T
0.5972650934303699   0.0039145483415048   0.6100427580   T   T   T
0.7996094723124488   -0.0010970625173407   0.6101961288   T   T   T
0.9998556072187234   0.1999274906473051   0.6102646152   T   T   T
0.2015083502295942   0.2016710010718023   0.6104868635   T   T   T
0.4001223725605381   0.2087722029961320   0.6085356080   T   T   T
0.5934762287590341   0.2033620587992903   0.6065678497   T   T   T
0.7966148557345061   0.1993962977822334   0.6100333607   T   T   T
0.0020670605698835   0.4000056475496814   0.6105537732   T   T   T
0.2091840533584557   0.4002588119906455   0.6087936367   T   T   T
0.4036803932468614   0.4003681674458768   0.6018085260   T   T   T
0.5984249261056631   0.3981508066645750   0.6147716804   T   T   T
0.7994956006310658   0.3997375260448601   0.6107075498   T   T   T
0.0035112537056915   0.5978372002768161   0.6103613516   T   T   T
0.2081527862517608   0.5906488210884531   0.6086716917   T   T   T
0.3979488378197396   0.5940533088010683   0.6059116036   T   T   T
0.5969176155400356   0.5983316237713052   0.6100480504   T   T   T
0.8000433725547194   0.5992727062477157   0.6116725194   T   T   T
0.0012675853395588   0.7976837664036420   0.6104993831   T   T   T
0.2015988741647829   0.7952461010140819   0.6104102302   T   T   T
0.3989713991678885   0.8002390621704341   0.6104406663   T   T   T
0.5987174867917903   0.8002815659239820   0.6117506133   T   T   T
0.7995113368678386   0.7992629342615907   0.6116987536   T   T   T
0.4492535015531466   0.4026397622973923   0.6569992325   T   T   T
0.5384923401965079   0.4010177134936476   0.6683452650   T   T   T
0.4012742993545876   0.4048044835369782   0.6846482433   T   T   T
 
  0.00000000E+00  0.00000000E+00  0.00000000E+00
  0.00000000E+00  0.00000000E+00  0.00000000E+00
  0.00000000E+00  0.00000000E+00  0.00000000E+00
  0.00000000E+00  0.00000000E+00  0.00000000E+00
  0.00000000E+00  0.00000000E+00  0.00000000E+00
  0.00000000E+00  0.00000000E+00  0.00000000E+00
  0.00000000E+00  0.00000000E+00  0.00000000E+00
  0.00000000E+00  0.00000000E+00  0.00000000E+00
  0.00000000E+00  0.00000000E+00  0.00000000E+00
  0.00000000E+00  0.00000000E+00  0.00000000E+00
  0.00000000E+00  0.00000000E+00  0.00000000E+00
  0.00000000E+00  0.00000000E+00  0.00000000E+00
  0.00000000E+00  0.00000000E+00  0.00000000E+00
  0.00000000E+00  0.00000000E+00  0.00000000E+00
  0.00000000E+00  0.00000000E+00  0.00000000E+00
  0.00000000E+00  0.00000000E+00  0.00000000E+00
  0.00000000E+00  0.00000000E+00  0.00000000E+00
  0.00000000E+00  0.00000000E+00  0.00000000E+00
  0.00000000E+00  0.00000000E+00  0.00000000E+00
  0.00000000E+00  0.00000000E+00  0.00000000E+00
  0.00000000E+00  0.00000000E+00  0.00000000E+00
  0.00000000E+00  0.00000000E+00  0.00000000E+00
  0.00000000E+00  0.00000000E+00  0.00000000E+00
  0.00000000E+00  0.00000000E+00  0.00000000E+00
  0.00000000E+00  0.00000000E+00  0.00000000E+00
  0.00000000E+00  0.00000000E+00  0.00000000E+00
  0.00000000E+00  0.00000000E+00  0.00000000E+00
  0.00000000E+00  0.00000000E+00  0.00000000E+00
  0.00000000E+00  0.00000000E+00  0.00000000E+00
  0.00000000E+00  0.00000000E+00  0.00000000E+00
  0.00000000E+00  0.00000000E+00  0.00000000E+00
  0.00000000E+00  0.00000000E+00  0.00000000E+00
  0.00000000E+00  0.00000000E+00  0.00000000E+00
  0.00000000E+00  0.00000000E+00  0.00000000E+00
  0.00000000E+00  0.00000000E+00  0.00000000E+00
  0.00000000E+00  0.00000000E+00  0.00000000E+00
  0.00000000E+00  0.00000000E+00  0.00000000E+00
  0.00000000E+00  0.00000000E+00  0.00000000E+00
  0.00000000E+00  0.00000000E+00  0.00000000E+00
  0.00000000E+00  0.00000000E+00  0.00000000E+00
  0.00000000E+00  0.00000000E+00  0.00000000E+00
  0.00000000E+00  0.00000000E+00  0.00000000E+00
  0.00000000E+00  0.00000000E+00  0.00000000E+00
  0.00000000E+00  0.00000000E+00  0.00000000E+00
  0.00000000E+00  0.00000000E+00  0.00000000E+00
  0.00000000E+00  0.00000000E+00  0.00000000E+00
  0.00000000E+00  0.00000000E+00  0.00000000E+00
  0.00000000E+00  0.00000000E+00  0.00000000E+00
  0.00000000E+00  0.00000000E+00  0.00000000E+00
  0.00000000E+00  0.00000000E+00  0.00000000E+00
  0.00000000E+00  0.00000000E+00  0.00000000E+00
  0.00000000E+00  0.00000000E+00  0.00000000E+00
  0.00000000E+00  0.00000000E+00  0.00000000E+00
  0.00000000E+00  0.00000000E+00  0.00000000E+00
  0.00000000E+00  0.00000000E+00  0.00000000E+00
  0.00000000E+00  0.00000000E+00  0.00000000E+00
  0.00000000E+00  0.00000000E+00  0.00000000E+00
  0.00000000E+00  0.00000000E+00  0.00000000E+00
  0.00000000E+00  0.00000000E+00  0.00000000E+00
  0.00000000E+00  0.00000000E+00  0.00000000E+00
  0.00000000E+00  0.00000000E+00  0.00000000E+00
  0.00000000E+00  0.00000000E+00  0.00000000E+00
  0.00000000E+00  0.00000000E+00  0.00000000E+00
  0.00000000E+00  0.00000000E+00  0.00000000E+00
  0.00000000E+00  0.00000000E+00  0.00000000E+00
  0.00000000E+00  0.00000000E+00  0.00000000E+00
  0.00000000E+00  0.00000000E+00  0.00000000E+00
  0.00000000E+00  0.00000000E+00  0.00000000E+00
  0.00000000E+00  0.00000000E+00  0.00000000E+00
  0.00000000E+00  0.00000000E+00  0.00000000E+00
  0.00000000E+00  0.00000000E+00  0.00000000E+00
  0.00000000E+00  0.00000000E+00  0.00000000E+00
  0.00000000E+00  0.00000000E+00  0.00000000E+00
  0.00000000E+00  0.00000000E+00  0.00000000E+00
  0.00000000E+00  0.00000000E+00  0.00000000E+00
  0.00000000E+00  0.00000000E+00  0.00000000E+00
  0.00000000E+00  0.00000000E+00  0.00000000E+00
  0.00000000E+00  0.00000000E+00  0.00000000E+00
  0.00000000E+00  0.00000000E+00  0.00000000E+00
  0.00000000E+00  0.00000000E+00  0.00000000E+00
  0.00000000E+00  0.00000000E+00  0.00000000E+00
  0.00000000E+00  0.00000000E+00  0.00000000E+00
  0.00000000E+00  0.00000000E+00  0.00000000E+00
  0.00000000E+00  0.00000000E+00  0.00000000E+00
  0.00000000E+00  0.00000000E+00  0.00000000E+00
  0.00000000E+00  0.00000000E+00  0.00000000E+00
  0.00000000E+00  0.00000000E+00  0.00000000E+00
  0.00000000E+00  0.00000000E+00  0.00000000E+00
  0.00000000E+00  0.00000000E+00  0.00000000E+00
  0.00000000E+00  0.00000000E+00  0.00000000E+00
  0.00000000E+00  0.00000000E+00  0.00000000E+00
  0.00000000E+00  0.00000000E+00  0.00000000E+00
  0.00000000E+00  0.00000000E+00  0.00000000E+00
  0.00000000E+00  0.00000000E+00  0.00000000E+00
  0.00000000E+00  0.00000000E+00  0.00000000E+00
  0.00000000E+00  0.00000000E+00  0.00000000E+00
  0.00000000E+00  0.00000000E+00  0.00000000E+00
  0.00000000E+00  0.00000000E+00  0.00000000E+00
  0.00000000E+00  0.00000000E+00  0.00000000E+00
  0.00000000E+00  0.00000000E+00  0.00000000E+00
  0.00000000E+00  0.00000000E+00  0.00000000E+00
  0.00000000E+00  0.00000000E+00  0.00000000E+00
  0.00000000E+00  0.00000000E+00  0.00000000E+00
  0.00000000E+00  0.00000000E+00  0.00000000E+00
  0.00000000E+00  0.00000000E+00  0.00000000E+00
  0.00000000E+00  0.00000000E+00  0.00000000E+00
  0.00000000E+00  0.00000000E+00  0.00000000E+00
  0.00000000E+00  0.00000000E+00  0.00000000E+00
  0.00000000E+00  0.00000000E+00  0.00000000E+00
  0.00000000E+00  0.00000000E+00  0.00000000E+00
  0.00000000E+00  0.00000000E+00  0.00000000E+00
  0.00000000E+00  0.00000000E+00  0.00000000E+00
  0.00000000E+00  0.00000000E+00  0.00000000E+00
  0.00000000E+00  0.00000000E+00  0.00000000E+00
  0.00000000E+00  0.00000000E+00  0.00000000E+00
  0.00000000E+00  0.00000000E+00  0.00000000E+00
  0.00000000E+00  0.00000000E+00  0.00000000E+00
  0.00000000E+00  0.00000000E+00  0.00000000E+00
  0.00000000E+00  0.00000000E+00  0.00000000E+00
  0.00000000E+00  0.00000000E+00  0.00000000E+00
  0.00000000E+00  0.00000000E+00  0.00000000E+00
  0.00000000E+00  0.00000000E+00  0.00000000E+00
  0.00000000E+00  0.00000000E+00  0.00000000E+00
  0.00000000E+00  0.00000000E+00  0.00000000E+00
  0.00000000E+00  0.00000000E+00  0.00000000E+00
  0.00000000E+00  0.00000000E+00  0.00000000E+00
  0.00000000E+00  0.00000000E+00  0.00000000E+00
  0.00000000E+00  0.00000000E+00  0.00000000E+00
