 C  H 
 1.0000000000000000
    14.3189123190275875    0.0000000000000000    0.0000000000000000
     7.1594561595137938   12.4005418228398376    0.0000000000000000
   0.0000000000   0.0000000000   22.3144580000
 C   H  
   2   6
Cartesian
10.4353900909500048   6.3585130691500176   11.9194380000
10.4353900909500048   6.3585130691500176   10.3950200000
10.4353900909500048   7.3774700691500179   12.3144580000
9.5529470909500045   5.8490340691500169   12.3144580000
11.3178330909500051   5.8490340691500169   12.3144580000
10.4353900909500048   5.3395560691500172   10.0000000000
9.5529470909500045   6.8679920691500183   10.0000000000
11.3178330909500051   6.8679920691500183   10.0000000000
