Al Fe  C  O  H                          
   1.00000000000000     
    14.3189123190275875    0.0000000000000000    0.0000000000000000
     7.1594561595137938   12.4005418228398376    0.0000000000000000
   0.0000000000   0.0000000000   31.6434210833
   Al   Fe   C    O    H 
   123     2     1     1     1
Selective dynamics
Direct
0.9710067205871908   0.1671387323170350   0.3160214559   F   F   F
0.1710067205871937   0.1671387323170350   0.3160214559   F   F   F
0.3710067205871965   0.1671387323170350   0.3160214559   F   F   F
0.5710067205871923   0.1671387323170350   0.3160214559   F   F   F
0.7710067205871951   0.1671387323170350   0.3160214559   F   F   F
0.9710067205871908   0.3671387323170379   0.3160214559   F   F   F
0.1710067205871937   0.3671387323170379   0.3160214559   F   F   F
0.3710067205871965   0.3671387323170379   0.3160214559   F   F   F
0.5710067205871923   0.3671387323170379   0.3160214559   F   F   F
0.7710067205871951   0.3671387323170379   0.3160214559   F   F   F
0.9710067205871908   0.5671387323170336   0.3160214559   F   F   F
0.1710067205871937   0.5671387323170336   0.3160214559   F   F   F
0.3710067205871965   0.5671387323170336   0.3160214559   F   F   F
0.5710067205871923   0.5671387323170336   0.3160214559   F   F   F
0.7710067205871951   0.5671387323170336   0.3160214559   F   F   F
0.9710067205871908   0.7671387323170364   0.3160214559   F   F   F
0.1710067205871937   0.7671387323170364   0.3160214559   F   F   F
0.3710067205871965   0.7671387323170364   0.3160214559   F   F   F
0.5710067205871923   0.7671387323170364   0.3160214559   F   F   F
0.7710067205871951   0.7671387323170364   0.3160214559   F   F   F
0.9710067205871908   0.9671387323170393   0.3160214559   F   F   F
0.1710067205871937   0.9671387323170393   0.3160214559   F   F   F
0.3710067205871965   0.9671387323170393   0.3160214559   F   F   F
0.5710067205871923   0.9671387323170393   0.3160214559   F   F   F
0.7710067205871951   0.9671387323170393   0.3160214559   F   F   F
0.0376733872538608   0.0338053989837022   0.3899157603   F   F   F
0.2376733872538637   0.0338053989837022   0.3899157603   F   F   F
0.4376733872538594   0.0338053989837022   0.3899157603   F   F   F
0.6376733872538622   0.0338053989837022   0.3899157603   F   F   F
0.8376733872538580   0.0338053989837022   0.3899157603   F   F   F
0.0376733872538608   0.2338053989837050   0.3899157603   F   F   F
0.2376733872538637   0.2338053989837050   0.3899157603   F   F   F
0.4376733872538594   0.2338053989837050   0.3899157603   F   F   F
0.6376733872538622   0.2338053989837050   0.3899157603   F   F   F
0.8376733872538580   0.2338053989837050   0.3899157603   F   F   F
0.0376733872538608   0.4338053989837007   0.3899157603   F   F   F
0.2376733872538637   0.4338053989837007   0.3899157603   F   F   F
0.4376733872538594   0.4338053989837007   0.3899157603   F   F   F
0.6376733872538622   0.4338053989837007   0.3899157603   F   F   F
0.8376733872538580   0.4338053989837007   0.3899157603   F   F   F
0.0376733872538608   0.6338053989837036   0.3899157603   F   F   F
0.2376733872538637   0.6338053989837036   0.3899157603   F   F   F
0.4376733872538594   0.6338053989837036   0.3899157603   F   F   F
0.6376733872538622   0.6338053989837036   0.3899157603   F   F   F
0.8376733872538580   0.6338053989837036   0.3899157603   F   F   F
0.0376733872538608   0.8338053989836993   0.3899157603   F   F   F
0.2376733872538637   0.8338053989836993   0.3899157603   F   F   F
0.4376733872538594   0.8338053989836993   0.3899157603   F   F   F
0.6376733872538622   0.8338053989836993   0.3899157603   F   F   F
0.8376733872538580   0.8338053989836993   0.3899157603   F   F   F
0.1043400539205308   0.1004720656503721   0.4638100647   F   F   F
0.3043400539205265   0.1004720656503721   0.4638100647   F   F   F
0.5043400539205294   0.1004720656503721   0.4638100647   F   F   F
0.7043400539205251   0.1004720656503721   0.4638100647   F   F   F
0.9043400539205280   0.1004720656503721   0.4638100647   F   F   F
0.1043400539205308   0.3004720656503679   0.4638100647   F   F   F
0.3043400539205265   0.3004720656503679   0.4638100647   F   F   F
0.5043400539205294   0.3004720656503679   0.4638100647   F   F   F
0.7043400539205251   0.3004720656503679   0.4638100647   F   F   F
0.9043400539205280   0.3004720656503679   0.4638100647   F   F   F
0.1043400539205308   0.5004720656503707   0.4638100647   F   F   F
0.3043400539205265   0.5004720656503707   0.4638100647   F   F   F
0.5043400539205294   0.5004720656503707   0.4638100647   F   F   F
0.7043400539205251   0.5004720656503707   0.4638100647   F   F   F
0.9043400539205280   0.5004720656503707   0.4638100647   F   F   F
0.1043400539205308   0.7004720656503665   0.4638100647   F   F   F
0.3043400539205265   0.7004720656503665   0.4638100647   F   F   F
0.5043400539205294   0.7004720656503665   0.4638100647   F   F   F
0.7043400539205251   0.7004720656503665   0.4638100647   F   F   F
0.9043400539205280   0.7004720656503665   0.4638100647   F   F   F
0.1043400539205308   0.9004720656503693   0.4638100647   F   F   F
0.3043400539205265   0.9004720656503693   0.4638100647   F   F   F
0.5043400539205294   0.9004720656503693   0.4638100647   F   F   F
0.7043400539205251   0.9004720656503693   0.4638100647   F   F   F
0.9043400539205280   0.9004720656503693   0.4638100647   F   F   F
0.9692698968661619   0.1691945368742061   0.5375887672   T   T   T
0.1726704758263607   0.1674547047097744   0.5375739967   T   T   T
0.3727665423810447   0.1673113802715475   0.5360616403   T   T   T
0.5680423528537920   0.1680238896527519   0.5361092252   T   T   T
0.7673564648173891   0.1684143491118819   0.5378785865   T   T   T
0.9709407021547781   0.3680543986821045   0.5373024307   T   T   T
0.1713158972071385   0.3676531683101260   0.5361318048   T   T   T
0.3657566346817738   0.3774350387964526   0.5389039149   T   T   T
0.5678179817915070   0.3688651268858122   0.5363373721   T   T   T
0.7680620849704530   0.3684536570888948   0.5377255487   T   T   T
0.9657610455158947   0.5694064061946953   0.5359505232   T   T   T
0.1666674999324297   0.5651435156501948   0.5356707831   T   T   T
0.3746611788593128   0.5659334011868911   0.5354520475   T   T   T
0.5721404902479831   0.5694517044660429   0.5359841794   T   T   T
0.7699312596068918   0.5674551500249206   0.5374335990   T   T   T
0.9703007150575832   0.7669164044342826   0.5376871373   T   T   T
0.1727928322293101   0.7626343687296053   0.5373372720   T   T   T
0.3718583026927182   0.7667569770098569   0.5376035459   T   T   T
0.5712099622768648   0.7684428567939379   0.5377490080   T   T   T
0.7693225310816775   0.7686734574738069   0.5377379938   T   T   T
0.9716374589366267   0.9664763064719718   0.5376716710   T   T   T
0.1717046225207702   0.9654954582903612   0.5378656959   T   T   T
0.3722167659735954   0.9667056721860765   0.5376849700   T   T   T
0.5714461563005465   0.9674373995220402   0.5377673836   T   T   T
0.7703148208466553   0.9676353539029331   0.5380055350   T   T   T
0.0378538585138758   0.0347490254326561   0.6114691042   T   T   T
0.2394450082862371   0.0336536980446250   0.6119032541   T   T   T
0.4361262674544331   0.0412463016656273   0.6113761371   T   T   T
0.6310361603163216   0.0447237498596738   0.6115731412   T   T   T
0.8364276673633636   0.0350812111571976   0.6119140190   T   T   T
0.0376724840466237   0.2355955284457011   0.6114500036   T   T   T
0.2395022741944252   0.2416729258789361   0.6098372667   T   T   T
0.4246779574955939   0.2590010336354672   0.6087974367   T   T   T
0.6218697445937047   0.2470837466653359   0.6103074054   T   T   T
0.8302532248463749   0.2376803114101742   0.6116933238   T   T   T
0.0425209861619655   0.4351392497203425   0.6094712695   T   T   T
0.6245526717838989   0.4370005989915093   0.6100807205   T   T   T
0.8360996044448060   0.4342920681193641   0.6121993388   T   T   T
0.0437283936323824   0.6281984822355822   0.6092862309   T   T   T
0.2481603464057384   0.6124140052308147   0.6061914062   T   T   T
0.4351957032702175   0.6282073174736705   0.6092731781   T   T   T
0.6351443940110236   0.6319208360544518   0.6117744366   T   T   T
0.8392141233338763   0.6322275222238024   0.6117867553   T   T   T
0.0409752595353028   0.8301688523412161   0.6116694104   T   T   T
0.2397730870585457   0.8272719758779736   0.6118986996   T   T   T
0.4385044851098026   0.8347211834689451   0.6126133370   T   T   T
0.6381352173759917   0.8352981218077339   0.6130370896   T   T   T
0.8380716541245760   0.8345610793526519   0.6130380718   T   T   T
0.2256235225692566   0.4360772669250296   0.6002899377   T   T   T
0.4344117607962568   0.4409930787163849   0.6016173191   T   T   T
0.3713792342892324   0.4492763914703781   0.6554529722   T   T   T
0.2862577050463029   0.4421350420298329   0.6621614544   T   T   T
0.4064114078902941   0.4622065609754584   0.6839785441   T   T   T
 
  0.00000000E+00  0.00000000E+00  0.00000000E+00
  0.00000000E+00  0.00000000E+00  0.00000000E+00
  0.00000000E+00  0.00000000E+00  0.00000000E+00
  0.00000000E+00  0.00000000E+00  0.00000000E+00
  0.00000000E+00  0.00000000E+00  0.00000000E+00
  0.00000000E+00  0.00000000E+00  0.00000000E+00
  0.00000000E+00  0.00000000E+00  0.00000000E+00
  0.00000000E+00  0.00000000E+00  0.00000000E+00
  0.00000000E+00  0.00000000E+00  0.00000000E+00
  0.00000000E+00  0.00000000E+00  0.00000000E+00
  0.00000000E+00  0.00000000E+00  0.00000000E+00
  0.00000000E+00  0.00000000E+00  0.00000000E+00
  0.00000000E+00  0.00000000E+00  0.00000000E+00
  0.00000000E+00  0.00000000E+00  0.00000000E+00
  0.00000000E+00  0.00000000E+00  0.00000000E+00
  0.00000000E+00  0.00000000E+00  0.00000000E+00
  0.00000000E+00  0.00000000E+00  0.00000000E+00
  0.00000000E+00  0.00000000E+00  0.00000000E+00
  0.00000000E+00  0.00000000E+00  0.00000000E+00
  0.00000000E+00  0.00000000E+00  0.00000000E+00
  0.00000000E+00  0.00000000E+00  0.00000000E+00
  0.00000000E+00  0.00000000E+00  0.00000000E+00
  0.00000000E+00  0.00000000E+00  0.00000000E+00
  0.00000000E+00  0.00000000E+00  0.00000000E+00
  0.00000000E+00  0.00000000E+00  0.00000000E+00
  0.00000000E+00  0.00000000E+00  0.00000000E+00
  0.00000000E+00  0.00000000E+00  0.00000000E+00
  0.00000000E+00  0.00000000E+00  0.00000000E+00
  0.00000000E+00  0.00000000E+00  0.00000000E+00
  0.00000000E+00  0.00000000E+00  0.00000000E+00
  0.00000000E+00  0.00000000E+00  0.00000000E+00
  0.00000000E+00  0.00000000E+00  0.00000000E+00
  0.00000000E+00  0.00000000E+00  0.00000000E+00
  0.00000000E+00  0.00000000E+00  0.00000000E+00
  0.00000000E+00  0.00000000E+00  0.00000000E+00
  0.00000000E+00  0.00000000E+00  0.00000000E+00
  0.00000000E+00  0.00000000E+00  0.00000000E+00
  0.00000000E+00  0.00000000E+00  0.00000000E+00
  0.00000000E+00  0.00000000E+00  0.00000000E+00
  0.00000000E+00  0.00000000E+00  0.00000000E+00
  0.00000000E+00  0.00000000E+00  0.00000000E+00
  0.00000000E+00  0.00000000E+00  0.00000000E+00
  0.00000000E+00  0.00000000E+00  0.00000000E+00
  0.00000000E+00  0.00000000E+00  0.00000000E+00
  0.00000000E+00  0.00000000E+00  0.00000000E+00
  0.00000000E+00  0.00000000E+00  0.00000000E+00
  0.00000000E+00  0.00000000E+00  0.00000000E+00
  0.00000000E+00  0.00000000E+00  0.00000000E+00
  0.00000000E+00  0.00000000E+00  0.00000000E+00
  0.00000000E+00  0.00000000E+00  0.00000000E+00
  0.00000000E+00  0.00000000E+00  0.00000000E+00
  0.00000000E+00  0.00000000E+00  0.00000000E+00
  0.00000000E+00  0.00000000E+00  0.00000000E+00
  0.00000000E+00  0.00000000E+00  0.00000000E+00
  0.00000000E+00  0.00000000E+00  0.00000000E+00
  0.00000000E+00  0.00000000E+00  0.00000000E+00
  0.00000000E+00  0.00000000E+00  0.00000000E+00
  0.00000000E+00  0.00000000E+00  0.00000000E+00
  0.00000000E+00  0.00000000E+00  0.00000000E+00
  0.00000000E+00  0.00000000E+00  0.00000000E+00
  0.00000000E+00  0.00000000E+00  0.00000000E+00
  0.00000000E+00  0.00000000E+00  0.00000000E+00
  0.00000000E+00  0.00000000E+00  0.00000000E+00
  0.00000000E+00  0.00000000E+00  0.00000000E+00
  0.00000000E+00  0.00000000E+00  0.00000000E+00
  0.00000000E+00  0.00000000E+00  0.00000000E+00
  0.00000000E+00  0.00000000E+00  0.00000000E+00
  0.00000000E+00  0.00000000E+00  0.00000000E+00
  0.00000000E+00  0.00000000E+00  0.00000000E+00
  0.00000000E+00  0.00000000E+00  0.00000000E+00
  0.00000000E+00  0.00000000E+00  0.00000000E+00
  0.00000000E+00  0.00000000E+00  0.00000000E+00
  0.00000000E+00  0.00000000E+00  0.00000000E+00
  0.00000000E+00  0.00000000E+00  0.00000000E+00
  0.00000000E+00  0.00000000E+00  0.00000000E+00
  0.00000000E+00  0.00000000E+00  0.00000000E+00
  0.00000000E+00  0.00000000E+00  0.00000000E+00
  0.00000000E+00  0.00000000E+00  0.00000000E+00
  0.00000000E+00  0.00000000E+00  0.00000000E+00
  0.00000000E+00  0.00000000E+00  0.00000000E+00
  0.00000000E+00  0.00000000E+00  0.00000000E+00
  0.00000000E+00  0.00000000E+00  0.00000000E+00
  0.00000000E+00  0.00000000E+00  0.00000000E+00
  0.00000000E+00  0.00000000E+00  0.00000000E+00
  0.00000000E+00  0.00000000E+00  0.00000000E+00
  0.00000000E+00  0.00000000E+00  0.00000000E+00
  0.00000000E+00  0.00000000E+00  0.00000000E+00
  0.00000000E+00  0.00000000E+00  0.00000000E+00
  0.00000000E+00  0.00000000E+00  0.00000000E+00
  0.00000000E+00  0.00000000E+00  0.00000000E+00
  0.00000000E+00  0.00000000E+00  0.00000000E+00
  0.00000000E+00  0.00000000E+00  0.00000000E+00
  0.00000000E+00  0.00000000E+00  0.00000000E+00
  0.00000000E+00  0.00000000E+00  0.00000000E+00
  0.00000000E+00  0.00000000E+00  0.00000000E+00
  0.00000000E+00  0.00000000E+00  0.00000000E+00
  0.00000000E+00  0.00000000E+00  0.00000000E+00
  0.00000000E+00  0.00000000E+00  0.00000000E+00
  0.00000000E+00  0.00000000E+00  0.00000000E+00
  0.00000000E+00  0.00000000E+00  0.00000000E+00
  0.00000000E+00  0.00000000E+00  0.00000000E+00
  0.00000000E+00  0.00000000E+00  0.00000000E+00
  0.00000000E+00  0.00000000E+00  0.00000000E+00
  0.00000000E+00  0.00000000E+00  0.00000000E+00
  0.00000000E+00  0.00000000E+00  0.00000000E+00
  0.00000000E+00  0.00000000E+00  0.00000000E+00
  0.00000000E+00  0.00000000E+00  0.00000000E+00
  0.00000000E+00  0.00000000E+00  0.00000000E+00
  0.00000000E+00  0.00000000E+00  0.00000000E+00
  0.00000000E+00  0.00000000E+00  0.00000000E+00
  0.00000000E+00  0.00000000E+00  0.00000000E+00
  0.00000000E+00  0.00000000E+00  0.00000000E+00
  0.00000000E+00  0.00000000E+00  0.00000000E+00
  0.00000000E+00  0.00000000E+00  0.00000000E+00
  0.00000000E+00  0.00000000E+00  0.00000000E+00
  0.00000000E+00  0.00000000E+00  0.00000000E+00
  0.00000000E+00  0.00000000E+00  0.00000000E+00
  0.00000000E+00  0.00000000E+00  0.00000000E+00
  0.00000000E+00  0.00000000E+00  0.00000000E+00
  0.00000000E+00  0.00000000E+00  0.00000000E+00
  0.00000000E+00  0.00000000E+00  0.00000000E+00
  0.00000000E+00  0.00000000E+00  0.00000000E+00
  0.00000000E+00  0.00000000E+00  0.00000000E+00
  0.00000000E+00  0.00000000E+00  0.00000000E+00
  0.00000000E+00  0.00000000E+00  0.00000000E+00
  0.00000000E+00  0.00000000E+00  0.00000000E+00
  0.00000000E+00  0.00000000E+00  0.00000000E+00
  0.00000000E+00  0.00000000E+00  0.00000000E+00
