Al Fe  O 
 1.0000000000000000
    14.3189123190275875    0.0000000000000000    0.0000000000000000
     7.1594561595137938   12.4005418228398376    0.0000000000000000
   0.0000000000   0.0000000000   30.3263051457
 Al  Fe  O  
 122   3   1
Selective dynamics
Cartesian
14.8630292790530270   1.7691441664196887   10.0000000000   F   F   F
3.4078994238309988   1.7691441664196887   10.0000000000   F   F   F
6.2716818876365572   1.7691441664196887   10.0000000000   F   F   F
9.1354643514420140   1.7691441664196887   10.0000000000   F   F   F
11.9992468152475702   1.7691441664196887   10.0000000000   F   F   F
16.2949205109558051   4.2492525309876914   10.0000000000   F   F   F
4.8397906557337773   4.2492525309876914   10.0000000000   F   F   F
7.7035731195393353   4.2492525309876914   10.0000000000   F   F   F
10.5673555833447921   4.2492525309876914   10.0000000000   F   F   F
13.4311380471503501   4.2492525309876914   10.0000000000   F   F   F
17.7268117428585334   6.7293608955556055   10.0000000000   F   F   F
6.2716818876365057   6.7293608955556055   10.0000000000   F   F   F
9.1354643514420637   6.7293608955556055   10.0000000000   F   F   F
11.9992468152475205   6.7293608955556055   10.0000000000   F   F   F
14.8630292790530785   6.7293608955556055   10.0000000000   F   F   F
19.1587029747613116   9.2094692601236083   10.0000000000   F   F   F
7.7035731195392847   9.2094692601236083   10.0000000000   F   F   F
10.5673555833448418   9.2094692601236083   10.0000000000   F   F   F
13.4311380471502986   9.2094692601236083   10.0000000000   F   F   F
16.2949205109558548   9.2094692601236083   10.0000000000   F   F   F
20.5905942066640932   11.6895776246916121   10.0000000000   F   F   F
9.1354643514420637   11.6895776246916121   10.0000000000   F   F   F
11.9992468152476217   11.6895776246916121   10.0000000000   F   F   F
14.8630292790530785   11.6895776246916121   10.0000000000   F   F   F
17.7268117428586365   11.6895776246916121   10.0000000000   F   F   F
0.5441169600254909   0.1157385900410492   12.3382685902   F   F   F
3.4078994238310485   0.1157385900410492   12.3382685902   F   F   F
6.2716818876365057   0.1157385900410492   12.3382685902   F   F   F
9.1354643514420637   0.1157385900410492   12.3382685902   F   F   F
11.9992468152475205   0.1157385900410492   12.3382685902   F   F   F
1.9760081919282697   2.5958469546090512   12.3382685902   F   F   F
4.8397906557338271   2.5958469546090512   12.3382685902   F   F   F
7.7035731195392847   2.5958469546090512   12.3382685902   F   F   F
10.5673555833448418   2.5958469546090512   12.3382685902   F   F   F
13.4311380471502986   2.5958469546090512   12.3382685902   F   F   F
3.4078994238309983   5.0759553191769671   12.3382685902   F   F   F
6.2716818876365554   5.0759553191769671   12.3382685902   F   F   F
9.1354643514420140   5.0759553191769671   12.3382685902   F   F   F
11.9992468152475702   5.0759553191769671   12.3382685902   F   F   F
14.8630292790530270   5.0759553191769671   12.3382685902   F   F   F
4.8397906557337773   7.5560636837449691   12.3382685902   F   F   F
7.7035731195393353   7.5560636837449691   12.3382685902   F   F   F
10.5673555833447921   7.5560636837449691   12.3382685902   F   F   F
13.4311380471503501   7.5560636837449691   12.3382685902   F   F   F
16.2949205109558051   7.5560636837449691   12.3382685902   F   F   F
6.2716818876365057   10.0361720483128849   12.3382685902   F   F   F
9.1354643514420637   10.0361720483128849   12.3382685902   F   F   F
11.9992468152475205   10.0361720483128849   12.3382685902   F   F   F
14.8630292790530785   10.0361720483128849   12.3382685902   F   F   F
17.7268117428585370   10.0361720483128849   12.3382685902   F   F   F
1.9760081919283212   0.9424413782304131   14.6765371804   F   F   F
4.8397906557337773   0.9424413782304131   14.6765371804   F   F   F
7.7035731195393362   0.9424413782304131   14.6765371804   F   F   F
10.5673555833447921   0.9424413782304131   14.6765371804   F   F   F
13.4311380471503501   0.9424413782304131   14.6765371804   F   F   F
3.4078994238310494   3.4225497427983274   14.6765371804   F   F   F
6.2716818876365057   3.4225497427983274   14.6765371804   F   F   F
9.1354643514420637   3.4225497427983274   14.6765371804   F   F   F
11.9992468152475205   3.4225497427983274   14.6765371804   F   F   F
14.8630292790530785   3.4225497427983274   14.6765371804   F   F   F
4.8397906557338288   5.9026581073663307   14.6765371804   F   F   F
7.7035731195392856   5.9026581073663307   14.6765371804   F   F   F
10.5673555833448436   5.9026581073663307   14.6765371804   F   F   F
13.4311380471503004   5.9026581073663307   14.6765371804   F   F   F
16.2949205109558584   5.9026581073663307   14.6765371804   F   F   F
6.2716818876365572   8.3827664719342447   14.6765371804   F   F   F
9.1354643514420140   8.3827664719342447   14.6765371804   F   F   F
11.9992468152475720   8.3827664719342447   14.6765371804   F   F   F
14.8630292790530287   8.3827664719342447   14.6765371804   F   F   F
17.7268117428585867   8.3827664719342447   14.6765371804   F   F   F
7.7035731195393362   10.8628748365022485   14.6765371804   F   F   F
10.5673555833447921   10.8628748365022485   14.6765371804   F   F   F
13.4311380471503519   10.8628748365022485   14.6765371804   F   F   F
16.2949205109558086   10.8628748365022485   14.6765371804   F   F   F
19.1587029747613649   10.8628748365022485   14.6765371804   F   F   F
14.8630328863949934   1.7691330553743430   17.0119541174   T   T   T
3.4299630236384266   1.7750672887473185   17.0105868748   T   T   T
6.3006831113146093   1.7608001060710530   16.9921371893   T   T   T
9.1064354532754024   1.7608256915444032   16.9921610621   T   T   T
11.9771679471764934   1.7750312085035513   17.0105316289   T   T   T
16.3110889422151430   4.2653923972529748   17.0105886167   T   T   T
4.8510261799416394   4.2557167298722005   16.9518884379   T   T   T
7.7035850859722279   4.2815690719010195   17.0023638743   T   T   T
10.5561388031949335   4.2556882995222818   16.9519444991   T   T   T
13.4149832540340519   4.2654173032987002   17.0105311119   T   T   T
17.7340392847486541   6.7586572502389952   16.9921388776   T   T   T
6.2995750805431845   6.7132091038535382   17.0023688231   T   T   T
9.1075839679259563   6.7131950344204991   17.0023755407   T   T   T
11.9920085320890042   6.7586601776665463   16.9921387841   T   T   T
14.8630257209190333   6.7395284086519398   17.0173919381   T   T   T
19.1369984744457682   9.1884704947954337   16.9921956096   T   T   T
7.7035605200279429   9.1963884355542689   16.9520360849   T   T   T
10.5890647868643271   9.1884979416213923   16.9921827507   T   T   T
13.4434487055951042   9.2165747887227276   17.0193838605   T   T   T
16.2826074520760287   9.2165737991347800   17.0193853755   T   T   T
20.5846323186693709   11.6675304311079699   17.0105157554   T   T   T
9.1414114004797771   11.6675341238243782   17.0105168514   T   T   T
12.0080454728936239   11.6844881287087485   17.0173875578   T   T   T
14.8630318685433380   11.6753733810573426   17.0193757947   T   T   T
17.7179664434379873   11.6844911568252279   17.0173754272   T   T   T
7.7035654197427208   12.4852950950329848   19.3434278116   T   T   T
10.5741633156950563   12.5123585681521696   19.3578468528   T   T   T
6.2823258190653233   0.1811092104892297   19.3552875083   T   T   T
9.1248392951192070   0.1810728106134579   19.3553171158   T   T   T
19.1519056556900793   12.5123501000430348   19.3578408162   T   T   T
2.0028861564981386   2.6113646772501053   19.3434960916   T   T   T
4.9259880636649127   2.6932526835961621   19.2993918436   T   T   T
7.7035721417910157   2.9066310906983430   19.3330870588   T   T   T
10.4811587426090824   2.6931842442283700   19.2993698480   T   T   T
13.4043009591211266   2.6113519877984639   19.3434563066   T   T   T
3.5353059504732589   5.1018469478046660   19.2993951085   T   T   T
11.8719095527770975   5.1018680838380366   19.2993752644   T   T   T
14.8630355866549131   5.0838171133985899   19.3578453021   T   T   T
5.1087221730210830   7.4006605701242059   19.3330747744   T   T   T
10.2985183965709375   7.4007510847183200   19.3329636742   T   T   T
13.3692452162082223   7.5326145893807608   19.3553387986   T   T   T
16.3568424476943548   7.5325913765177344   19.3553321770   T   T   T
6.3128559912734445   9.9128741620653678   19.2993584230   T   T   T
9.0942762730642244   9.9129198010413315   19.2993627050   T   T   T
11.9480194478472299   9.9943260487826198   19.3553355343   T   T   T
14.8630211481536705   10.0361800132545778   19.4132587906   T   T   T
17.7780371836840239   9.9943166945765789   19.3553315754   T   T   T
6.1722160013238021   5.0185609307556689   18.9141140038   T   T   T
9.2349451577564459   5.0185881284033851   18.9140258788   T   T   T
7.7036003460587716   7.6708060541806731   18.9138909837   T   T   T
7.7161300494697809   5.1188031362956572   20.3263051457   T   T   T
