Al Fe Al Fe Al                          
   1.00000000000000     
    14.3189123190275875    0.0000000000000000    0.0000000000000000
     7.1594561595137938   12.4005418228398376    0.0000000000000000
     0.0000000000000000    0.0000000000000000   39.3530743608719362
   Al   Fe   Al   Fe   Al
   111     2     3     1     8
Selective dynamics
Direct
  0.9333333333333300  0.1333333333333329  0.4573975551423999   F   F   F
  0.1333333333333329  0.1333333333333329  0.4573975551423999   F   F   F
  0.3333333333333357  0.1333333333333329  0.4573975551423999   F   F   F
  0.5333333333333314  0.1333333333333329  0.4573975551423999   F   F   F
  0.7333333333333343  0.1333333333333329  0.4573975551423999   F   F   F
  0.9333333333333300  0.3333333333333357  0.4573975551423999   F   F   F
  0.1333333333333329  0.3333333333333357  0.4573975551423999   F   F   F
  0.3333333333333357  0.3333333333333357  0.4573975551423999   F   F   F
  0.5333333333333314  0.3333333333333357  0.4573975551423999   F   F   F
  0.7333333333333343  0.3333333333333357  0.4573975551423999   F   F   F
  0.9333333333333300  0.5333333333333314  0.4573975551423999   F   F   F
  0.1333333333333329  0.5333333333333314  0.4573975551423999   F   F   F
  0.3333333333333357  0.5333333333333314  0.4573975551423999   F   F   F
  0.5333333333333314  0.5333333333333314  0.4573975551423999   F   F   F
  0.7333333333333343  0.5333333333333314  0.4573975551423999   F   F   F
  0.9333333333333300  0.7333333333333343  0.4573975551423999   F   F   F
  0.1333333333333329  0.7333333333333343  0.4573975551423999   F   F   F
  0.3333333333333357  0.7333333333333343  0.4573975551423999   F   F   F
  0.5333333333333314  0.7333333333333343  0.4573975551423999   F   F   F
  0.7333333333333343  0.7333333333333343  0.4573975551423999   F   F   F
  0.9333333333333300  0.9333333333333371  0.4573975551423999   F   F   F
  0.1333333333333329  0.9333333333333371  0.4573975551423999   F   F   F
  0.3333333333333357  0.9333333333333371  0.4573975551423999   F   F   F
  0.5333333333333314  0.9333333333333371  0.4573975551423999   F   F   F
  0.7333333333333343  0.9333333333333371  0.4573975551423999   F   F   F
  0.0000000000000000  0.0000000000000000  0.5168152404997386   F   F   F
  0.2000000000000028  0.0000000000000000  0.5168152404997386   F   F   F
  0.3999999999999986  0.0000000000000000  0.5168152404997386   F   F   F
  0.6000000000000014  0.0000000000000000  0.5168152404997386   F   F   F
  0.7999999999999972  0.0000000000000000  0.5168152404997386   F   F   F
  0.0000000000000000  0.2000000000000028  0.5168152404997386   F   F   F
  0.2000000000000028  0.2000000000000028  0.5168152404997386   F   F   F
  0.3999999999999986  0.2000000000000028  0.5168152404997386   F   F   F
  0.6000000000000014  0.2000000000000028  0.5168152404997386   F   F   F
  0.7999999999999972  0.2000000000000028  0.5168152404997386   F   F   F
  0.0000000000000000  0.3999999999999986  0.5168152404997386   F   F   F
  0.2000000000000028  0.3999999999999986  0.5168152404997386   F   F   F
  0.3999999999999986  0.3999999999999986  0.5168152404997386   F   F   F
  0.6000000000000014  0.3999999999999986  0.5168152404997386   F   F   F
  0.7999999999999972  0.3999999999999986  0.5168152404997386   F   F   F
  0.0000000000000000  0.6000000000000014  0.5168152404997386   F   F   F
  0.2000000000000028  0.6000000000000014  0.5168152404997386   F   F   F
  0.3999999999999986  0.6000000000000014  0.5168152404997386   F   F   F
  0.6000000000000014  0.6000000000000014  0.5168152404997386   F   F   F
  0.7999999999999972  0.6000000000000014  0.5168152404997386   F   F   F
  0.0000000000000000  0.7999999999999972  0.5168152404997386   F   F   F
  0.2000000000000028  0.7999999999999972  0.5168152404997386   F   F   F
  0.3999999999999986  0.7999999999999972  0.5168152404997386   F   F   F
  0.6000000000000014  0.7999999999999972  0.5168152404997386   F   F   F
  0.7999999999999972  0.7999999999999972  0.5168152404997386   F   F   F
  0.0666666666666700  0.0666666666666700  0.5762329258570702   F   F   F
  0.2666666666666657  0.0666666666666700  0.5762329258570702   F   F   F
  0.4666666666666686  0.0666666666666700  0.5762329258570702   F   F   F
  0.6666666666666643  0.0666666666666700  0.5762329258570702   F   F   F
  0.8666666666666671  0.0666666666666700  0.5762329258570702   F   F   F
  0.0666666666666700  0.2666666666666657  0.5762329258570702   F   F   F
  0.2666666666666657  0.2666666666666657  0.5762329258570702   F   F   F
  0.4666666666666686  0.2666666666666657  0.5762329258570702   F   F   F
  0.6666666666666643  0.2666666666666657  0.5762329258570702   F   F   F
  0.8666666666666671  0.2666666666666657  0.5762329258570702   F   F   F
  0.0666666666666700  0.4666666666666686  0.5762329258570702   F   F   F
  0.2666666666666657  0.4666666666666686  0.5762329258570702   F   F   F
  0.4666666666666686  0.4666666666666686  0.5762329258570702   F   F   F
  0.6666666666666643  0.4666666666666686  0.5762329258570702   F   F   F
  0.8666666666666671  0.4666666666666686  0.5762329258570702   F   F   F
  0.0666666666666700  0.6666666666666643  0.5762329258570702   F   F   F
  0.2666666666666657  0.6666666666666643  0.5762329258570702   F   F   F
  0.4666666666666686  0.6666666666666643  0.5762329258570702   F   F   F
  0.6666666666666643  0.6666666666666643  0.5762329258570702   F   F   F
  0.8666666666666671  0.6666666666666643  0.5762329258570702   F   F   F
  0.0666666666666700  0.8666666666666671  0.5762329258570702   F   F   F
  0.2666666666666657  0.8666666666666671  0.5762329258570702   F   F   F
  0.4666666666666686  0.8666666666666671  0.5762329258570702   F   F   F
  0.6666666666666643  0.8666666666666671  0.5762329258570702   F   F   F
  0.8666666666666671  0.8666666666666671  0.5762329258570702   F   F   F
  0.9333340332682667  0.1333324373204405  0.6355781479249032   T   T   T
  0.1346353794051112  0.1338109836176713  0.6355434049550439   T   T   T
  0.3356951516344040  0.1326604546423980  0.6350745804528941   T   T   T
  0.5316414293731455  0.1326625178968683  0.6350751870849507   T   T   T
  0.7315540254616693  0.1338080740477281  0.6355420011045965   T   T   T
  0.9338117268714541  0.3346348785799762  0.6355434492198668   T   T   T
  0.1338573547865423  0.3338546169173000  0.6340518204255758   T   T   T
  0.3320311396507947  0.3359393921148808  0.6353344504924436   T   T   T
  0.5322904836731723  0.3338523242473244  0.6340532449960392   T   T   T
  0.7315533427730472  0.3346368870442902  0.6355419879653965   T   T   T
  0.9326568352756013  0.5356958393513693  0.6350746233551234   T   T   T
  0.1359325834275111  0.5320308263999394  0.6353345762481695   T   T   T
  0.3320380520420727  0.5320296918178187  0.6353347469492689   T   T   T
  0.5316464571911936  0.5356960754239211  0.6350746209787417   T   T   T
  0.7329231223880939  0.5341532582399680  0.6357163282523359   T   T   T
  0.9326642282164599  0.7316399585092199  0.6350760649713578   T   T   T
  0.1338598829697162  0.7322784742186101  0.6340555722807792   T   T   T
  0.3356950350568013  0.7316421718662127  0.6350757382136933   T   T   T
  0.5339065807569128  0.7339063347957406  0.6357669449418140   T   T   T
  0.7321869567074657  0.7339062549937481  0.6357669834406821   T   T   T
  0.9338059296454588  0.9315554115377722  0.6355415977435896   T   T   T
  0.1346374736046911  0.9315557093244706  0.6355416255936746   T   T   T
  0.3341530240514743  0.9329229080426060  0.6357162169433508   T   T   T
  0.5339062409113211  0.9321878798654808  0.6357667399824791   T   T   T
  0.7329206884552093  0.9329231522348778  0.6357159086934701   T   T   T
  0.0012488156506194  0.9975012932264917  0.6948231683463106   T   T   T
  0.2006335684064524  0.9996837360185751  0.6951895702462139   T   T   T
  0.3981075508194820  0.0052715938853396  0.6951245348064603   T   T   T
  0.5966236411620898  0.0052686585397481  0.6951252871621705   T   T   T
  0.7996837642555903  0.9996830531363869  0.6951894168503969   T   T   T
  0.0012514081256043  0.2012513745659490  0.6948249034069534   T   T   T
  0.2020923505509558  0.2078549574993360  0.6937041714517491   T   T   T
  0.3874688608756358  0.2250621416813345  0.6945603997326231   T   T   T
  0.5900554910926843  0.2078494384366394  0.6937036125226825   T   T   T
  0.7975005836813907  0.2012503512677881  0.6948238924324812   T   T   T
  0.0078538079833663  0.4020879433332496  0.6937042544159482   T   T   T
  0.1953677193330137  0.3953716225273638  0.6839138857856639   T   T   T
  0.4092606034868993  0.3953738157902151  0.6839116464453525   T   T   T
  0.5900622337121320  0.4020896477775935  0.6937037501572618   T   T   T
  0.7996834465281069  0.4006339879606813  0.6951895308403451   T   T   T
  0.0250475412362547  0.5874680384259889  0.6945600875748070   T   T   T
  0.1953753951093731  0.6092530126566231  0.6839082186282397   T   T   T
  0.3874873585419465  0.5874753376710871  0.6945572644085587   T   T   T
  0.5966230333057894  0.5981090266297073  0.6951258381441079   T   T   T
  0.8052709087082235  0.5981071547064190  0.6951256698806105   T   T   T
  0.0078469767080804  0.7900570565376057  0.6937033222010101   T   T   T
  0.2020931505895760  0.7900607369393668  0.6937034310122385   T   T   T
  0.3981096631012235  0.7966254700699267  0.6951257551925849   T   T   T
  0.5999991110036618  0.8000006423059389  0.6965976416281023   T   T   T
  0.8052651094505237  0.7966247157314328  0.6951256545942144   T   T   T
 
  0.00000000E+00  0.00000000E+00  0.00000000E+00
  0.00000000E+00  0.00000000E+00  0.00000000E+00
  0.00000000E+00  0.00000000E+00  0.00000000E+00
  0.00000000E+00  0.00000000E+00  0.00000000E+00
  0.00000000E+00  0.00000000E+00  0.00000000E+00
  0.00000000E+00  0.00000000E+00  0.00000000E+00
  0.00000000E+00  0.00000000E+00  0.00000000E+00
  0.00000000E+00  0.00000000E+00  0.00000000E+00
  0.00000000E+00  0.00000000E+00  0.00000000E+00
  0.00000000E+00  0.00000000E+00  0.00000000E+00
  0.00000000E+00  0.00000000E+00  0.00000000E+00
  0.00000000E+00  0.00000000E+00  0.00000000E+00
  0.00000000E+00  0.00000000E+00  0.00000000E+00
  0.00000000E+00  0.00000000E+00  0.00000000E+00
  0.00000000E+00  0.00000000E+00  0.00000000E+00
  0.00000000E+00  0.00000000E+00  0.00000000E+00
  0.00000000E+00  0.00000000E+00  0.00000000E+00
  0.00000000E+00  0.00000000E+00  0.00000000E+00
  0.00000000E+00  0.00000000E+00  0.00000000E+00
  0.00000000E+00  0.00000000E+00  0.00000000E+00
  0.00000000E+00  0.00000000E+00  0.00000000E+00
  0.00000000E+00  0.00000000E+00  0.00000000E+00
  0.00000000E+00  0.00000000E+00  0.00000000E+00
  0.00000000E+00  0.00000000E+00  0.00000000E+00
  0.00000000E+00  0.00000000E+00  0.00000000E+00
  0.00000000E+00  0.00000000E+00  0.00000000E+00
  0.00000000E+00  0.00000000E+00  0.00000000E+00
  0.00000000E+00  0.00000000E+00  0.00000000E+00
  0.00000000E+00  0.00000000E+00  0.00000000E+00
  0.00000000E+00  0.00000000E+00  0.00000000E+00
  0.00000000E+00  0.00000000E+00  0.00000000E+00
  0.00000000E+00  0.00000000E+00  0.00000000E+00
  0.00000000E+00  0.00000000E+00  0.00000000E+00
  0.00000000E+00  0.00000000E+00  0.00000000E+00
  0.00000000E+00  0.00000000E+00  0.00000000E+00
  0.00000000E+00  0.00000000E+00  0.00000000E+00
  0.00000000E+00  0.00000000E+00  0.00000000E+00
  0.00000000E+00  0.00000000E+00  0.00000000E+00
  0.00000000E+00  0.00000000E+00  0.00000000E+00
  0.00000000E+00  0.00000000E+00  0.00000000E+00
  0.00000000E+00  0.00000000E+00  0.00000000E+00
  0.00000000E+00  0.00000000E+00  0.00000000E+00
  0.00000000E+00  0.00000000E+00  0.00000000E+00
  0.00000000E+00  0.00000000E+00  0.00000000E+00
  0.00000000E+00  0.00000000E+00  0.00000000E+00
  0.00000000E+00  0.00000000E+00  0.00000000E+00
  0.00000000E+00  0.00000000E+00  0.00000000E+00
  0.00000000E+00  0.00000000E+00  0.00000000E+00
  0.00000000E+00  0.00000000E+00  0.00000000E+00
  0.00000000E+00  0.00000000E+00  0.00000000E+00
  0.00000000E+00  0.00000000E+00  0.00000000E+00
  0.00000000E+00  0.00000000E+00  0.00000000E+00
  0.00000000E+00  0.00000000E+00  0.00000000E+00
  0.00000000E+00  0.00000000E+00  0.00000000E+00
  0.00000000E+00  0.00000000E+00  0.00000000E+00
  0.00000000E+00  0.00000000E+00  0.00000000E+00
  0.00000000E+00  0.00000000E+00  0.00000000E+00
  0.00000000E+00  0.00000000E+00  0.00000000E+00
  0.00000000E+00  0.00000000E+00  0.00000000E+00
  0.00000000E+00  0.00000000E+00  0.00000000E+00
  0.00000000E+00  0.00000000E+00  0.00000000E+00
  0.00000000E+00  0.00000000E+00  0.00000000E+00
  0.00000000E+00  0.00000000E+00  0.00000000E+00
  0.00000000E+00  0.00000000E+00  0.00000000E+00
  0.00000000E+00  0.00000000E+00  0.00000000E+00
  0.00000000E+00  0.00000000E+00  0.00000000E+00
  0.00000000E+00  0.00000000E+00  0.00000000E+00
  0.00000000E+00  0.00000000E+00  0.00000000E+00
  0.00000000E+00  0.00000000E+00  0.00000000E+00
  0.00000000E+00  0.00000000E+00  0.00000000E+00
  0.00000000E+00  0.00000000E+00  0.00000000E+00
  0.00000000E+00  0.00000000E+00  0.00000000E+00
  0.00000000E+00  0.00000000E+00  0.00000000E+00
  0.00000000E+00  0.00000000E+00  0.00000000E+00
  0.00000000E+00  0.00000000E+00  0.00000000E+00
  0.00000000E+00  0.00000000E+00  0.00000000E+00
  0.00000000E+00  0.00000000E+00  0.00000000E+00
  0.00000000E+00  0.00000000E+00  0.00000000E+00
  0.00000000E+00  0.00000000E+00  0.00000000E+00
  0.00000000E+00  0.00000000E+00  0.00000000E+00
  0.00000000E+00  0.00000000E+00  0.00000000E+00
  0.00000000E+00  0.00000000E+00  0.00000000E+00
  0.00000000E+00  0.00000000E+00  0.00000000E+00
  0.00000000E+00  0.00000000E+00  0.00000000E+00
  0.00000000E+00  0.00000000E+00  0.00000000E+00
  0.00000000E+00  0.00000000E+00  0.00000000E+00
  0.00000000E+00  0.00000000E+00  0.00000000E+00
  0.00000000E+00  0.00000000E+00  0.00000000E+00
  0.00000000E+00  0.00000000E+00  0.00000000E+00
  0.00000000E+00  0.00000000E+00  0.00000000E+00
  0.00000000E+00  0.00000000E+00  0.00000000E+00
  0.00000000E+00  0.00000000E+00  0.00000000E+00
  0.00000000E+00  0.00000000E+00  0.00000000E+00
  0.00000000E+00  0.00000000E+00  0.00000000E+00
  0.00000000E+00  0.00000000E+00  0.00000000E+00
  0.00000000E+00  0.00000000E+00  0.00000000E+00
  0.00000000E+00  0.00000000E+00  0.00000000E+00
  0.00000000E+00  0.00000000E+00  0.00000000E+00
  0.00000000E+00  0.00000000E+00  0.00000000E+00
  0.00000000E+00  0.00000000E+00  0.00000000E+00
  0.00000000E+00  0.00000000E+00  0.00000000E+00
  0.00000000E+00  0.00000000E+00  0.00000000E+00
  0.00000000E+00  0.00000000E+00  0.00000000E+00
  0.00000000E+00  0.00000000E+00  0.00000000E+00
  0.00000000E+00  0.00000000E+00  0.00000000E+00
  0.00000000E+00  0.00000000E+00  0.00000000E+00
  0.00000000E+00  0.00000000E+00  0.00000000E+00
  0.00000000E+00  0.00000000E+00  0.00000000E+00
  0.00000000E+00  0.00000000E+00  0.00000000E+00
  0.00000000E+00  0.00000000E+00  0.00000000E+00
  0.00000000E+00  0.00000000E+00  0.00000000E+00
  0.00000000E+00  0.00000000E+00  0.00000000E+00
  0.00000000E+00  0.00000000E+00  0.00000000E+00
  0.00000000E+00  0.00000000E+00  0.00000000E+00
  0.00000000E+00  0.00000000E+00  0.00000000E+00
  0.00000000E+00  0.00000000E+00  0.00000000E+00
  0.00000000E+00  0.00000000E+00  0.00000000E+00
  0.00000000E+00  0.00000000E+00  0.00000000E+00
  0.00000000E+00  0.00000000E+00  0.00000000E+00
  0.00000000E+00  0.00000000E+00  0.00000000E+00
  0.00000000E+00  0.00000000E+00  0.00000000E+00
  0.00000000E+00  0.00000000E+00  0.00000000E+00
  0.00000000E+00  0.00000000E+00  0.00000000E+00
  0.00000000E+00  0.00000000E+00  0.00000000E+00
  0.00000000E+00  0.00000000E+00  0.00000000E+00
