System: AlFe-CO binding-Al_Environment_in_CO_binding_Geometric_relaxation
LCHARG = .FALSE.
LWAVE = .FALSE.
LREAL = AUTO

LDIPOL = .TRUE.   # 5X5X5 Al slab, Top point and center put on the CO molecule
IDIPOL = 3        # along the z-axis 
DIPOL = 0.5 0.5 0.5

ALGO = Normal
NCORE = 16 
EDIFF = 1e-6      # electronic convergence 
PREC = Accurate
IBRION = 2        # Conjugate gradient algorithm

NSW = 1000
NELM = 1000
EDIFFG = -0.01    # max forces: 0.1eV/AA
ENCUT =  600      # keep ENCUT from a_0 optimization
SIGMA = 0.050000
ISMEAR = 0    # Gaussian smearing
ISPIN = 2     # CO molecule


## BEEF-vdW
GGA = BF 
LUSE_VDW = .TRUE. 
Zab_VDW = -1.8867
LBEEFENS=.TRUE.

