System: AlFe-CO binding-Geometric_relaxation
LCHARG = .FALSE.
LWAVE = .FALSE.
LREAL = AUTO

LDIPOL = .TRUE. # 5X5X5 Al slab, center of top slab was changed for Fe ion
IDIPOL = 3      # along the z-axis 
DIPOL = 0.5 0.5 0.5

ALGO = Normal
NCORE = 8
EDIFF = 1e-6    # electronic convergence 
PREC = Accurate
IBRION = 5      # Think about vibration
POTIM = 0.015   # turn on IBRION, so each ion to calculate the Hessian Matrix.
NFREE = 2       #

ISYM = 0  # ! Does not use symmetry #

NELM = 1000
ENCUT =  600      # keep ENCUT from a_0 optimization
SIGMA = 0.010000
ISMEAR = 0    # Gaussian smearing
ISPIN = 2
MAGMOM = 112*0.0 1*2.3 22*0.0

## BEEF-vdW
GGA = BF
LUSE_VDW = .TRUE. 
Zab_VDW = -1.8867
LBEEFENS=.TRUE.
