Al Fe  C  O  H                          
   1.00000000000000     
    14.3189123190275875    0.0000000000000000    0.0000000000000000
     7.1594561595137938   12.4005418228398376    0.0000000000000000
   0.0000000000   0.0000000000   31.5992363811
   Al   Fe   C    O    H 
   122     3     1     1     1
Selective dynamics
Direct
0.9704794399373071   0.1443910229206580   0.3164633436   F   F   F
0.1704794399373100   0.1443910229206580   0.3164633436   F   F   F
0.3704794399373128   0.1443910229206580   0.3164633436   F   F   F
0.5704794399373085   0.1443910229206580   0.3164633436   F   F   F
0.7704794399373114   0.1443910229206580   0.3164633436   F   F   F
0.9704794399373071   0.3443910229206608   0.3164633436   F   F   F
0.1704794399373100   0.3443910229206608   0.3164633436   F   F   F
0.3704794399373128   0.3443910229206608   0.3164633436   F   F   F
0.5704794399373085   0.3443910229206608   0.3164633436   F   F   F
0.7704794399373114   0.3443910229206608   0.3164633436   F   F   F
0.9704794399373071   0.5443910229206566   0.3164633436   F   F   F
0.1704794399373100   0.5443910229206566   0.3164633436   F   F   F
0.3704794399373128   0.5443910229206566   0.3164633436   F   F   F
0.5704794399373085   0.5443910229206566   0.3164633436   F   F   F
0.7704794399373114   0.5443910229206566   0.3164633436   F   F   F
0.9704794399373071   0.7443910229206594   0.3164633436   F   F   F
0.1704794399373100   0.7443910229206594   0.3164633436   F   F   F
0.3704794399373128   0.7443910229206594   0.3164633436   F   F   F
0.5704794399373085   0.7443910229206594   0.3164633436   F   F   F
0.7704794399373114   0.7443910229206594   0.3164633436   F   F   F
0.9704794399373071   0.9443910229206622   0.3164633436   F   F   F
0.1704794399373100   0.9443910229206622   0.3164633436   F   F   F
0.3704794399373128   0.9443910229206622   0.3164633436   F   F   F
0.5704794399373085   0.9443910229206622   0.3164633436   F   F   F
0.7704794399373114   0.9443910229206622   0.3164633436   F   F   F
0.0371461066039771   0.0110576895873251   0.3904609732   F   F   F
0.2371461066039799   0.0110576895873251   0.3904609732   F   F   F
0.4371461066039757   0.0110576895873251   0.3904609732   F   F   F
0.6371461066039785   0.0110576895873251   0.3904609732   F   F   F
0.8371461066039743   0.0110576895873251   0.3904609732   F   F   F
0.0371461066039771   0.2110576895873280   0.3904609732   F   F   F
0.2371461066039799   0.2110576895873280   0.3904609732   F   F   F
0.4371461066039757   0.2110576895873280   0.3904609732   F   F   F
0.6371461066039785   0.2110576895873280   0.3904609732   F   F   F
0.8371461066039743   0.2110576895873280   0.3904609732   F   F   F
0.0371461066039771   0.4110576895873237   0.3904609732   F   F   F
0.2371461066039799   0.4110576895873237   0.3904609732   F   F   F
0.4371461066039757   0.4110576895873237   0.3904609732   F   F   F
0.6371461066039785   0.4110576895873237   0.3904609732   F   F   F
0.8371461066039743   0.4110576895873237   0.3904609732   F   F   F
0.0371461066039771   0.6110576895873265   0.3904609732   F   F   F
0.2371461066039799   0.6110576895873265   0.3904609732   F   F   F
0.4371461066039757   0.6110576895873265   0.3904609732   F   F   F
0.6371461066039785   0.6110576895873265   0.3904609732   F   F   F
0.8371461066039743   0.6110576895873265   0.3904609732   F   F   F
0.0371461066039771   0.8110576895873223   0.3904609732   F   F   F
0.2371461066039799   0.8110576895873223   0.3904609732   F   F   F
0.4371461066039757   0.8110576895873223   0.3904609732   F   F   F
0.6371461066039785   0.8110576895873223   0.3904609732   F   F   F
0.8371461066039743   0.8110576895873223   0.3904609732   F   F   F
0.1038127732706471   0.0777243562539951   0.4644586028   F   F   F
0.3038127732706428   0.0777243562539951   0.4644586028   F   F   F
0.5038127732706457   0.0777243562539951   0.4644586028   F   F   F
0.7038127732706414   0.0777243562539951   0.4644586028   F   F   F
0.9038127732706442   0.0777243562539951   0.4644586028   F   F   F
0.1038127732706471   0.2777243562539908   0.4644586028   F   F   F
0.3038127732706428   0.2777243562539908   0.4644586028   F   F   F
0.5038127732706457   0.2777243562539908   0.4644586028   F   F   F
0.7038127732706414   0.2777243562539908   0.4644586028   F   F   F
0.9038127732706442   0.2777243562539908   0.4644586028   F   F   F
0.1038127732706471   0.4777243562539937   0.4644586028   F   F   F
0.3038127732706428   0.4777243562539937   0.4644586028   F   F   F
0.5038127732706457   0.4777243562539937   0.4644586028   F   F   F
0.7038127732706414   0.4777243562539937   0.4644586028   F   F   F
0.9038127732706442   0.4777243562539937   0.4644586028   F   F   F
0.1038127732706471   0.6777243562539894   0.4644586028   F   F   F
0.3038127732706428   0.6777243562539894   0.4644586028   F   F   F
0.5038127732706457   0.6777243562539894   0.4644586028   F   F   F
0.7038127732706414   0.6777243562539894   0.4644586028   F   F   F
0.9038127732706442   0.6777243562539894   0.4644586028   F   F   F
0.1038127732706471   0.8777243562539923   0.4644586028   F   F   F
0.3038127732706428   0.8777243562539923   0.4644586028   F   F   F
0.5038127732706457   0.8777243562539923   0.4644586028   F   F   F
0.7038127732706414   0.8777243562539923   0.4644586028   F   F   F
0.9038127732706442   0.8777243562539923   0.4644586028   F   F   F
0.9711132589481921   0.1436234514804554   0.5381503670   T   T   T
0.1714821122858254   0.1450060812331259   0.5382951519   T   T   T
0.3723933240782478   0.1447467417735223   0.5378439486   T   T   T
0.5681061717604100   0.1438134334604723   0.5369960812   T   T   T
0.7698826210391333   0.1429468671984617   0.5375068333   T   T   T
0.9711722979365585   0.3453491287547576   0.5378746563   T   T   T
0.1710427462309658   0.3450185657661575   0.5364460231   T   T   T
0.3697132561615826   0.3481912187771967   0.5388768861   T   T   T
0.5713714287079448   0.3468747958438976   0.5380801823   T   T   T
0.7704727372748230   0.3451099695049550   0.5379846093   T   T   T
0.9683135440378607   0.5471395553609973   0.5372605660   T   T   T
0.1717653221670673   0.5429034053673542   0.5377100892   T   T   T
0.3685117627979621   0.5404220989019700   0.5381558168   T   T   T
0.5694467818310832   0.5445851780703103   0.5384648029   T   T   T
0.7697413561956215   0.5451804763779616   0.5379704137   T   T   T
0.9686152356048787   0.7427086053069228   0.5373762656   T   T   T
0.1707030786215596   0.7427416395246675   0.5363865257   T   T   T
0.3728906479997631   0.7417456654507364   0.5374146727   T   T   T
0.5698425802080936   0.7450057962718740   0.5381999578   T   T   T
0.7673155411519242   0.7454866774056427   0.5381084849   T   T   T
0.9708019591870570   0.9418091331548506   0.5381376150   T   T   T
0.1717340711110482   0.9416674399029744   0.5383139424   T   T   T
0.3705540387389372   0.9442078969572780   0.5382043990   T   T   T
0.5698968512436720   0.9438232582523371   0.5382554937   T   T   T
0.7695084391822549   0.9432096898538542   0.5380448014   T   T   T
0.0379777893416341   0.0076726643436277   0.6122913174   T   T   T
0.2363761723704787   0.0105944090262456   0.6127389995   T   T   T
0.4337037516671902   0.0171791513238442   0.6124432862   T   T   T
0.6307491567705820   0.0184216897734791   0.6120643015   T   T   T
0.8375457372827653   0.0081580440748040   0.6122912153   T   T   T
0.0384641520462124   0.2113197056893518   0.6119580061   T   T   T
0.2389258476089004   0.2196778099243161   0.6109558810   T   T   T
0.4238477530079593   0.2410694232200233   0.6122355919   T   T   T
0.6304156065517660   0.2150180571914602   0.6083004553   T   T   T
0.8364267808571750   0.2087222954100835   0.6114870593   T   T   T
0.0432414513459645   0.4130752777923175   0.6104316628   T   T   T
0.6397341097812737   0.4076049288971504   0.6160628986   T   T   T
0.8394263976014356   0.4112194550786217   0.6122684337   T   T   T
0.0565647761787481   0.6009810370012162   0.6109890809   T   T   T
0.4217755115746127   0.5995046068951466   0.6092879678   T   T   T
0.6339380200958593   0.6099745287504044   0.6117846990   T   T   T
0.8398130168181904   0.6100765810304173   0.6119456650   T   T   T
0.0430705432976119   0.8022216051483553   0.6106813437   T   T   T
0.2381704461584289   0.8006007233843081   0.6108484395   T   T   T
0.4340290590458161   0.8089484175566245   0.6123153550   T   T   T
0.6347033507607940   0.8124451797401767   0.6137818196   T   T   T
0.8394016083149298   0.8083346665189737   0.6122133483   T   T   T
0.2291494631024538   0.4089660082532900   0.5988593651   T   T   T
0.4601658372644712   0.4032391672024791   0.6017641379   T   T   T
0.2289764343450546   0.6198517369909121   0.5983494343   T   T   T
0.4922348983691003   0.4208786336604504   0.6573530203   T   T   T
0.5811238678150087   0.4181334419001193   0.6706320718   T   T   T
0.4365197017711227   0.4317199384051225   0.6835366564   T   T   T
 
  0.00000000E+00  0.00000000E+00  0.00000000E+00
  0.00000000E+00  0.00000000E+00  0.00000000E+00
  0.00000000E+00  0.00000000E+00  0.00000000E+00
  0.00000000E+00  0.00000000E+00  0.00000000E+00
  0.00000000E+00  0.00000000E+00  0.00000000E+00
  0.00000000E+00  0.00000000E+00  0.00000000E+00
  0.00000000E+00  0.00000000E+00  0.00000000E+00
  0.00000000E+00  0.00000000E+00  0.00000000E+00
  0.00000000E+00  0.00000000E+00  0.00000000E+00
  0.00000000E+00  0.00000000E+00  0.00000000E+00
  0.00000000E+00  0.00000000E+00  0.00000000E+00
  0.00000000E+00  0.00000000E+00  0.00000000E+00
  0.00000000E+00  0.00000000E+00  0.00000000E+00
  0.00000000E+00  0.00000000E+00  0.00000000E+00
  0.00000000E+00  0.00000000E+00  0.00000000E+00
  0.00000000E+00  0.00000000E+00  0.00000000E+00
  0.00000000E+00  0.00000000E+00  0.00000000E+00
  0.00000000E+00  0.00000000E+00  0.00000000E+00
  0.00000000E+00  0.00000000E+00  0.00000000E+00
  0.00000000E+00  0.00000000E+00  0.00000000E+00
  0.00000000E+00  0.00000000E+00  0.00000000E+00
  0.00000000E+00  0.00000000E+00  0.00000000E+00
  0.00000000E+00  0.00000000E+00  0.00000000E+00
  0.00000000E+00  0.00000000E+00  0.00000000E+00
  0.00000000E+00  0.00000000E+00  0.00000000E+00
  0.00000000E+00  0.00000000E+00  0.00000000E+00
  0.00000000E+00  0.00000000E+00  0.00000000E+00
  0.00000000E+00  0.00000000E+00  0.00000000E+00
  0.00000000E+00  0.00000000E+00  0.00000000E+00
  0.00000000E+00  0.00000000E+00  0.00000000E+00
  0.00000000E+00  0.00000000E+00  0.00000000E+00
  0.00000000E+00  0.00000000E+00  0.00000000E+00
  0.00000000E+00  0.00000000E+00  0.00000000E+00
  0.00000000E+00  0.00000000E+00  0.00000000E+00
  0.00000000E+00  0.00000000E+00  0.00000000E+00
  0.00000000E+00  0.00000000E+00  0.00000000E+00
  0.00000000E+00  0.00000000E+00  0.00000000E+00
  0.00000000E+00  0.00000000E+00  0.00000000E+00
  0.00000000E+00  0.00000000E+00  0.00000000E+00
  0.00000000E+00  0.00000000E+00  0.00000000E+00
  0.00000000E+00  0.00000000E+00  0.00000000E+00
  0.00000000E+00  0.00000000E+00  0.00000000E+00
  0.00000000E+00  0.00000000E+00  0.00000000E+00
  0.00000000E+00  0.00000000E+00  0.00000000E+00
  0.00000000E+00  0.00000000E+00  0.00000000E+00
  0.00000000E+00  0.00000000E+00  0.00000000E+00
  0.00000000E+00  0.00000000E+00  0.00000000E+00
  0.00000000E+00  0.00000000E+00  0.00000000E+00
  0.00000000E+00  0.00000000E+00  0.00000000E+00
  0.00000000E+00  0.00000000E+00  0.00000000E+00
  0.00000000E+00  0.00000000E+00  0.00000000E+00
  0.00000000E+00  0.00000000E+00  0.00000000E+00
  0.00000000E+00  0.00000000E+00  0.00000000E+00
  0.00000000E+00  0.00000000E+00  0.00000000E+00
  0.00000000E+00  0.00000000E+00  0.00000000E+00
  0.00000000E+00  0.00000000E+00  0.00000000E+00
  0.00000000E+00  0.00000000E+00  0.00000000E+00
  0.00000000E+00  0.00000000E+00  0.00000000E+00
  0.00000000E+00  0.00000000E+00  0.00000000E+00
  0.00000000E+00  0.00000000E+00  0.00000000E+00
  0.00000000E+00  0.00000000E+00  0.00000000E+00
  0.00000000E+00  0.00000000E+00  0.00000000E+00
  0.00000000E+00  0.00000000E+00  0.00000000E+00
  0.00000000E+00  0.00000000E+00  0.00000000E+00
  0.00000000E+00  0.00000000E+00  0.00000000E+00
  0.00000000E+00  0.00000000E+00  0.00000000E+00
  0.00000000E+00  0.00000000E+00  0.00000000E+00
  0.00000000E+00  0.00000000E+00  0.00000000E+00
  0.00000000E+00  0.00000000E+00  0.00000000E+00
  0.00000000E+00  0.00000000E+00  0.00000000E+00
  0.00000000E+00  0.00000000E+00  0.00000000E+00
  0.00000000E+00  0.00000000E+00  0.00000000E+00
  0.00000000E+00  0.00000000E+00  0.00000000E+00
  0.00000000E+00  0.00000000E+00  0.00000000E+00
  0.00000000E+00  0.00000000E+00  0.00000000E+00
  0.00000000E+00  0.00000000E+00  0.00000000E+00
  0.00000000E+00  0.00000000E+00  0.00000000E+00
  0.00000000E+00  0.00000000E+00  0.00000000E+00
  0.00000000E+00  0.00000000E+00  0.00000000E+00
  0.00000000E+00  0.00000000E+00  0.00000000E+00
  0.00000000E+00  0.00000000E+00  0.00000000E+00
  0.00000000E+00  0.00000000E+00  0.00000000E+00
  0.00000000E+00  0.00000000E+00  0.00000000E+00
  0.00000000E+00  0.00000000E+00  0.00000000E+00
  0.00000000E+00  0.00000000E+00  0.00000000E+00
  0.00000000E+00  0.00000000E+00  0.00000000E+00
  0.00000000E+00  0.00000000E+00  0.00000000E+00
  0.00000000E+00  0.00000000E+00  0.00000000E+00
  0.00000000E+00  0.00000000E+00  0.00000000E+00
  0.00000000E+00  0.00000000E+00  0.00000000E+00
  0.00000000E+00  0.00000000E+00  0.00000000E+00
  0.00000000E+00  0.00000000E+00  0.00000000E+00
  0.00000000E+00  0.00000000E+00  0.00000000E+00
  0.00000000E+00  0.00000000E+00  0.00000000E+00
  0.00000000E+00  0.00000000E+00  0.00000000E+00
  0.00000000E+00  0.00000000E+00  0.00000000E+00
  0.00000000E+00  0.00000000E+00  0.00000000E+00
  0.00000000E+00  0.00000000E+00  0.00000000E+00
  0.00000000E+00  0.00000000E+00  0.00000000E+00
  0.00000000E+00  0.00000000E+00  0.00000000E+00
  0.00000000E+00  0.00000000E+00  0.00000000E+00
  0.00000000E+00  0.00000000E+00  0.00000000E+00
  0.00000000E+00  0.00000000E+00  0.00000000E+00
  0.00000000E+00  0.00000000E+00  0.00000000E+00
  0.00000000E+00  0.00000000E+00  0.00000000E+00
  0.00000000E+00  0.00000000E+00  0.00000000E+00
  0.00000000E+00  0.00000000E+00  0.00000000E+00
  0.00000000E+00  0.00000000E+00  0.00000000E+00
  0.00000000E+00  0.00000000E+00  0.00000000E+00
  0.00000000E+00  0.00000000E+00  0.00000000E+00
  0.00000000E+00  0.00000000E+00  0.00000000E+00
  0.00000000E+00  0.00000000E+00  0.00000000E+00
  0.00000000E+00  0.00000000E+00  0.00000000E+00
  0.00000000E+00  0.00000000E+00  0.00000000E+00
  0.00000000E+00  0.00000000E+00  0.00000000E+00
  0.00000000E+00  0.00000000E+00  0.00000000E+00
  0.00000000E+00  0.00000000E+00  0.00000000E+00
  0.00000000E+00  0.00000000E+00  0.00000000E+00
  0.00000000E+00  0.00000000E+00  0.00000000E+00
  0.00000000E+00  0.00000000E+00  0.00000000E+00
  0.00000000E+00  0.00000000E+00  0.00000000E+00
  0.00000000E+00  0.00000000E+00  0.00000000E+00
  0.00000000E+00  0.00000000E+00  0.00000000E+00
  0.00000000E+00  0.00000000E+00  0.00000000E+00
  0.00000000E+00  0.00000000E+00  0.00000000E+00
  0.00000000E+00  0.00000000E+00  0.00000000E+00
  0.00000000E+00  0.00000000E+00  0.00000000E+00
  0.00000000E+00  0.00000000E+00  0.00000000E+00
