Al Fe  C  O  H                          
   1.00000000000000     
    14.3189123190275875    0.0000000000000000    0.0000000000000000
     7.1594561595137938   12.4005418228398376    0.0000000000000000
   0.0000000000   0.0000000000   31.7851609660
   Al   Fe   C    O    H 
   122     3     1     1     1
Selective dynamics
Direct
0.9666665393251961   0.1426666827703613   0.3146122183   F   F   F
0.1666665393251989   0.1426666827703613   0.3146122183   F   F   F
0.3666665393252018   0.1426666827703613   0.3146122183   F   F   F
0.5666665393251975   0.1426666827703613   0.3146122183   F   F   F
0.7666665393252003   0.1426666827703613   0.3146122183   F   F   F
0.9666665393251961   0.3426666827703642   0.3146122183   F   F   F
0.1666665393251989   0.3426666827703642   0.3146122183   F   F   F
0.3666665393252018   0.3426666827703642   0.3146122183   F   F   F
0.5666665393251975   0.3426666827703642   0.3146122183   F   F   F
0.7666665393252003   0.3426666827703642   0.3146122183   F   F   F
0.9666665393251961   0.5426666827703599   0.3146122183   F   F   F
0.1666665393251989   0.5426666827703599   0.3146122183   F   F   F
0.3666665393252018   0.5426666827703599   0.3146122183   F   F   F
0.5666665393251975   0.5426666827703599   0.3146122183   F   F   F
0.7666665393252003   0.5426666827703599   0.3146122183   F   F   F
0.9666665393251961   0.7426666827703627   0.3146122183   F   F   F
0.1666665393251989   0.7426666827703627   0.3146122183   F   F   F
0.3666665393252018   0.7426666827703627   0.3146122183   F   F   F
0.5666665393251975   0.7426666827703627   0.3146122183   F   F   F
0.7666665393252003   0.7426666827703627   0.3146122183   F   F   F
0.9666665393251961   0.9426666827703656   0.3146122183   F   F   F
0.1666665393251989   0.9426666827703656   0.3146122183   F   F   F
0.3666665393252018   0.9426666827703656   0.3146122183   F   F   F
0.5666665393251975   0.9426666827703656   0.3146122183   F   F   F
0.7666665393252003   0.9426666827703656   0.3146122183   F   F   F
0.0333332059918661   0.0093333494370285   0.3881770051   F   F   F
0.2333332059918689   0.0093333494370285   0.3881770051   F   F   F
0.4333332059918646   0.0093333494370285   0.3881770051   F   F   F
0.6333332059918675   0.0093333494370285   0.3881770051   F   F   F
0.8333332059918632   0.0093333494370285   0.3881770051   F   F   F
0.0333332059918661   0.2093333494370313   0.3881770051   F   F   F
0.2333332059918689   0.2093333494370313   0.3881770051   F   F   F
0.4333332059918646   0.2093333494370313   0.3881770051   F   F   F
0.6333332059918675   0.2093333494370313   0.3881770051   F   F   F
0.8333332059918632   0.2093333494370313   0.3881770051   F   F   F
0.0333332059918661   0.4093333494370270   0.3881770051   F   F   F
0.2333332059918689   0.4093333494370270   0.3881770051   F   F   F
0.4333332059918646   0.4093333494370270   0.3881770051   F   F   F
0.6333332059918675   0.4093333494370270   0.3881770051   F   F   F
0.8333332059918632   0.4093333494370270   0.3881770051   F   F   F
0.0333332059918661   0.6093333494370299   0.3881770051   F   F   F
0.2333332059918689   0.6093333494370299   0.3881770051   F   F   F
0.4333332059918646   0.6093333494370299   0.3881770051   F   F   F
0.6333332059918675   0.6093333494370299   0.3881770051   F   F   F
0.8333332059918632   0.6093333494370299   0.3881770051   F   F   F
0.0333332059918661   0.8093333494370256   0.3881770051   F   F   F
0.2333332059918689   0.8093333494370256   0.3881770051   F   F   F
0.4333332059918646   0.8093333494370256   0.3881770051   F   F   F
0.6333332059918675   0.8093333494370256   0.3881770051   F   F   F
0.8333332059918632   0.8093333494370256   0.3881770051   F   F   F
0.0999998726585360   0.0760000161036984   0.4617417919   F   F   F
0.2999998726585318   0.0760000161036984   0.4617417919   F   F   F
0.4999998726585346   0.0760000161036984   0.4617417919   F   F   F
0.6999998726585304   0.0760000161036984   0.4617417919   F   F   F
0.8999998726585332   0.0760000161036984   0.4617417919   F   F   F
0.0999998726585360   0.2760000161036942   0.4617417919   F   F   F
0.2999998726585318   0.2760000161036942   0.4617417919   F   F   F
0.4999998726585346   0.2760000161036942   0.4617417919   F   F   F
0.6999998726585304   0.2760000161036942   0.4617417919   F   F   F
0.8999998726585332   0.2760000161036942   0.4617417919   F   F   F
0.0999998726585360   0.4760000161036970   0.4617417919   F   F   F
0.2999998726585318   0.4760000161036970   0.4617417919   F   F   F
0.4999998726585346   0.4760000161036970   0.4617417919   F   F   F
0.6999998726585304   0.4760000161036970   0.4617417919   F   F   F
0.8999998726585332   0.4760000161036970   0.4617417919   F   F   F
0.0999998726585360   0.6760000161036928   0.4617417919   F   F   F
0.2999998726585318   0.6760000161036928   0.4617417919   F   F   F
0.4999998726585346   0.6760000161036928   0.4617417919   F   F   F
0.6999998726585304   0.6760000161036928   0.4617417919   F   F   F
0.8999998726585332   0.6760000161036928   0.4617417919   F   F   F
0.0999998726585360   0.8760000161036956   0.4617417919   F   F   F
0.2999998726585318   0.8760000161036956   0.4617417919   F   F   F
0.4999998726585346   0.8760000161036956   0.4617417919   F   F   F
0.6999998726585304   0.8760000161036956   0.4617417919   F   F   F
0.8999998726585332   0.8760000161036956   0.4617417919   F   F   F
0.9702149274093216   0.1411452037743194   0.5347767797   T   T   T
0.1675094306089427   0.1442502723169708   0.5341944531   T   T   T
0.3673639873403745   0.1412582388873999   0.5343264564   T   T   T
0.5647733524004646   0.1408979219441691   0.5332509173   T   T   T
0.7649651739652208   0.1452403003538226   0.5352923132   T   T   T
0.9707232541102684   0.3442583444463193   0.5358364933   T   T   T
0.1712187136338440   0.3457007117165416   0.5348586107   T   T   T
0.3644437317343735   0.3444945444383370   0.5351275977   T   T   T
0.5647513870720100   0.3440672032824565   0.5332963002   T   T   T
0.7647920675601637   0.3433042020960121   0.5356633728   T   T   T
0.9660066284309977   0.5469553006719692   0.5347513921   T   T   T
0.1671883731848285   0.5442443198907371   0.5345660189   T   T   T
0.3658583616193337   0.5403139991386979   0.5349662812   T   T   T
0.5651941565989109   0.5473619399543407   0.5350624718   T   T   T
0.7671056764518821   0.5419862437595993   0.5338885637   T   T   T
0.9648990161695795   0.7415854785668581   0.5347326771   T   T   T
0.1703399917740238   0.7398879941113335   0.5340609743   T   T   T
0.3672539594292522   0.7422307288793585   0.5342969260   T   T   T
0.5644456391624936   0.7468522790703154   0.5349635327   T   T   T
0.7623337471483144   0.7443637200509521   0.5358502810   T   T   T
0.9680635885274271   0.9373787829435729   0.5355977640   T   T   T
0.1670321821554116   0.9418577993239629   0.5350821122   T   T   T
0.3660893647499153   0.9438327310586676   0.5354355371   T   T   T
0.5671019675656269   0.9432022981320556   0.5349854148   T   T   T
0.7660674133477543   0.9441389923094563   0.5346574776   T   T   T
0.0336073172363675   0.0067535988036011   0.6084259583   T   T   T
0.2314341580263635   0.0111507188634642   0.6092589153   T   T   T
0.4300614650625073   0.0158729739311566   0.6087604422   T   T   T
0.6281573466592368   0.0175196302004460   0.6083606819   T   T   T
0.8325618657153302   0.0083207347129850   0.6089712502   T   T   T
0.0365930528483222   0.2122310020154611   0.6087316197   T   T   T
0.2384969582241847   0.2184870480573084   0.6076805814   T   T   T
0.4268500633755373   0.2299721963090393   0.6068286176   T   T   T
0.6263848436001725   0.2166140740681992   0.6069946403   T   T   T
0.8338855587633002   0.2116937916362910   0.6078472114   T   T   T
0.0426367429207584   0.4127762961031431   0.6067543423   T   T   T
0.6218005112551445   0.4105796895569928   0.6084701833   T   T   T
0.8288361928723545   0.4139036408012965   0.6090630744   T   T   T
0.0568566093076535   0.5993966498929049   0.6074265878   T   T   T
0.4218512052565555   0.5918197749933011   0.6083735123   T   T   T
0.6299146228254934   0.6087308710957078   0.6080810251   T   T   T
0.8365246529421659   0.6084845462639566   0.6093443642   T   T   T
0.0435949018534164   0.7986834956805681   0.6074469801   T   T   T
0.2390222840019872   0.7948241940144822   0.6074755334   T   T   T
0.4292990797039493   0.8070186712446471   0.6084729291   T   T   T
0.6291768782874760   0.8125935861305420   0.6099886233   T   T   T
0.8336057986240422   0.8082530582105062   0.6088554285   T   T   T
0.2350729189535088   0.4122650282667460   0.5990160886   T   T   T
0.4400825522780587   0.4038053121080461   0.5977067946   T   T   T
0.2325153435009159   0.6095752648832745   0.5979392354   T   T   T
0.3397519516375351   0.4365285909083609   0.6402938812   T   T   T
0.3257554085337731   0.4265028094557992   0.6811156872   T   T   T
0.2540915066441355   0.4902901975770516   0.6853877817   T   T   T
 
  0.00000000E+00  0.00000000E+00  0.00000000E+00
  0.00000000E+00  0.00000000E+00  0.00000000E+00
  0.00000000E+00  0.00000000E+00  0.00000000E+00
  0.00000000E+00  0.00000000E+00  0.00000000E+00
  0.00000000E+00  0.00000000E+00  0.00000000E+00
  0.00000000E+00  0.00000000E+00  0.00000000E+00
  0.00000000E+00  0.00000000E+00  0.00000000E+00
  0.00000000E+00  0.00000000E+00  0.00000000E+00
  0.00000000E+00  0.00000000E+00  0.00000000E+00
  0.00000000E+00  0.00000000E+00  0.00000000E+00
  0.00000000E+00  0.00000000E+00  0.00000000E+00
  0.00000000E+00  0.00000000E+00  0.00000000E+00
  0.00000000E+00  0.00000000E+00  0.00000000E+00
  0.00000000E+00  0.00000000E+00  0.00000000E+00
  0.00000000E+00  0.00000000E+00  0.00000000E+00
  0.00000000E+00  0.00000000E+00  0.00000000E+00
  0.00000000E+00  0.00000000E+00  0.00000000E+00
  0.00000000E+00  0.00000000E+00  0.00000000E+00
  0.00000000E+00  0.00000000E+00  0.00000000E+00
  0.00000000E+00  0.00000000E+00  0.00000000E+00
  0.00000000E+00  0.00000000E+00  0.00000000E+00
  0.00000000E+00  0.00000000E+00  0.00000000E+00
  0.00000000E+00  0.00000000E+00  0.00000000E+00
  0.00000000E+00  0.00000000E+00  0.00000000E+00
  0.00000000E+00  0.00000000E+00  0.00000000E+00
  0.00000000E+00  0.00000000E+00  0.00000000E+00
  0.00000000E+00  0.00000000E+00  0.00000000E+00
  0.00000000E+00  0.00000000E+00  0.00000000E+00
  0.00000000E+00  0.00000000E+00  0.00000000E+00
  0.00000000E+00  0.00000000E+00  0.00000000E+00
  0.00000000E+00  0.00000000E+00  0.00000000E+00
  0.00000000E+00  0.00000000E+00  0.00000000E+00
  0.00000000E+00  0.00000000E+00  0.00000000E+00
  0.00000000E+00  0.00000000E+00  0.00000000E+00
  0.00000000E+00  0.00000000E+00  0.00000000E+00
  0.00000000E+00  0.00000000E+00  0.00000000E+00
  0.00000000E+00  0.00000000E+00  0.00000000E+00
  0.00000000E+00  0.00000000E+00  0.00000000E+00
  0.00000000E+00  0.00000000E+00  0.00000000E+00
  0.00000000E+00  0.00000000E+00  0.00000000E+00
  0.00000000E+00  0.00000000E+00  0.00000000E+00
  0.00000000E+00  0.00000000E+00  0.00000000E+00
  0.00000000E+00  0.00000000E+00  0.00000000E+00
  0.00000000E+00  0.00000000E+00  0.00000000E+00
  0.00000000E+00  0.00000000E+00  0.00000000E+00
  0.00000000E+00  0.00000000E+00  0.00000000E+00
  0.00000000E+00  0.00000000E+00  0.00000000E+00
  0.00000000E+00  0.00000000E+00  0.00000000E+00
  0.00000000E+00  0.00000000E+00  0.00000000E+00
  0.00000000E+00  0.00000000E+00  0.00000000E+00
  0.00000000E+00  0.00000000E+00  0.00000000E+00
  0.00000000E+00  0.00000000E+00  0.00000000E+00
  0.00000000E+00  0.00000000E+00  0.00000000E+00
  0.00000000E+00  0.00000000E+00  0.00000000E+00
  0.00000000E+00  0.00000000E+00  0.00000000E+00
  0.00000000E+00  0.00000000E+00  0.00000000E+00
  0.00000000E+00  0.00000000E+00  0.00000000E+00
  0.00000000E+00  0.00000000E+00  0.00000000E+00
  0.00000000E+00  0.00000000E+00  0.00000000E+00
  0.00000000E+00  0.00000000E+00  0.00000000E+00
  0.00000000E+00  0.00000000E+00  0.00000000E+00
  0.00000000E+00  0.00000000E+00  0.00000000E+00
  0.00000000E+00  0.00000000E+00  0.00000000E+00
  0.00000000E+00  0.00000000E+00  0.00000000E+00
  0.00000000E+00  0.00000000E+00  0.00000000E+00
  0.00000000E+00  0.00000000E+00  0.00000000E+00
  0.00000000E+00  0.00000000E+00  0.00000000E+00
  0.00000000E+00  0.00000000E+00  0.00000000E+00
  0.00000000E+00  0.00000000E+00  0.00000000E+00
  0.00000000E+00  0.00000000E+00  0.00000000E+00
  0.00000000E+00  0.00000000E+00  0.00000000E+00
  0.00000000E+00  0.00000000E+00  0.00000000E+00
  0.00000000E+00  0.00000000E+00  0.00000000E+00
  0.00000000E+00  0.00000000E+00  0.00000000E+00
  0.00000000E+00  0.00000000E+00  0.00000000E+00
  0.00000000E+00  0.00000000E+00  0.00000000E+00
  0.00000000E+00  0.00000000E+00  0.00000000E+00
  0.00000000E+00  0.00000000E+00  0.00000000E+00
  0.00000000E+00  0.00000000E+00  0.00000000E+00
  0.00000000E+00  0.00000000E+00  0.00000000E+00
  0.00000000E+00  0.00000000E+00  0.00000000E+00
  0.00000000E+00  0.00000000E+00  0.00000000E+00
  0.00000000E+00  0.00000000E+00  0.00000000E+00
  0.00000000E+00  0.00000000E+00  0.00000000E+00
  0.00000000E+00  0.00000000E+00  0.00000000E+00
  0.00000000E+00  0.00000000E+00  0.00000000E+00
  0.00000000E+00  0.00000000E+00  0.00000000E+00
  0.00000000E+00  0.00000000E+00  0.00000000E+00
  0.00000000E+00  0.00000000E+00  0.00000000E+00
  0.00000000E+00  0.00000000E+00  0.00000000E+00
  0.00000000E+00  0.00000000E+00  0.00000000E+00
  0.00000000E+00  0.00000000E+00  0.00000000E+00
  0.00000000E+00  0.00000000E+00  0.00000000E+00
  0.00000000E+00  0.00000000E+00  0.00000000E+00
  0.00000000E+00  0.00000000E+00  0.00000000E+00
  0.00000000E+00  0.00000000E+00  0.00000000E+00
  0.00000000E+00  0.00000000E+00  0.00000000E+00
  0.00000000E+00  0.00000000E+00  0.00000000E+00
  0.00000000E+00  0.00000000E+00  0.00000000E+00
  0.00000000E+00  0.00000000E+00  0.00000000E+00
  0.00000000E+00  0.00000000E+00  0.00000000E+00
  0.00000000E+00  0.00000000E+00  0.00000000E+00
  0.00000000E+00  0.00000000E+00  0.00000000E+00
  0.00000000E+00  0.00000000E+00  0.00000000E+00
  0.00000000E+00  0.00000000E+00  0.00000000E+00
  0.00000000E+00  0.00000000E+00  0.00000000E+00
  0.00000000E+00  0.00000000E+00  0.00000000E+00
  0.00000000E+00  0.00000000E+00  0.00000000E+00
  0.00000000E+00  0.00000000E+00  0.00000000E+00
  0.00000000E+00  0.00000000E+00  0.00000000E+00
  0.00000000E+00  0.00000000E+00  0.00000000E+00
  0.00000000E+00  0.00000000E+00  0.00000000E+00
  0.00000000E+00  0.00000000E+00  0.00000000E+00
  0.00000000E+00  0.00000000E+00  0.00000000E+00
  0.00000000E+00  0.00000000E+00  0.00000000E+00
  0.00000000E+00  0.00000000E+00  0.00000000E+00
  0.00000000E+00  0.00000000E+00  0.00000000E+00
  0.00000000E+00  0.00000000E+00  0.00000000E+00
  0.00000000E+00  0.00000000E+00  0.00000000E+00
  0.00000000E+00  0.00000000E+00  0.00000000E+00
  0.00000000E+00  0.00000000E+00  0.00000000E+00
  0.00000000E+00  0.00000000E+00  0.00000000E+00
  0.00000000E+00  0.00000000E+00  0.00000000E+00
  0.00000000E+00  0.00000000E+00  0.00000000E+00
  0.00000000E+00  0.00000000E+00  0.00000000E+00
  0.00000000E+00  0.00000000E+00  0.00000000E+00
  0.00000000E+00  0.00000000E+00  0.00000000E+00
  0.00000000E+00  0.00000000E+00  0.00000000E+00
