C  H 
 1.0000000000000000
    14.3189123190275875    0.0000000000000000    0.0000000000000000
     7.1594561595137938   12.4005418228398376    0.0000000000000000
   0.0000000000   0.0000000000   26.8977135581
 C   H  
   5  12
Cartesian
10.7387625321187574   5.6462316440783731   12.1721098354
10.7401722188864319   5.6623228049448588   14.7315584463
10.7399072720558308   6.5144490887323308   16.0021566574
10.7392123247612847   6.4943394014395768   13.4473166897
10.7381211098922034   6.4836833912780296   10.8915864017
10.7380631568902469   5.8524184034361522   10.0000000000
10.7379843678812215   5.8886944793944789   16.8977135581
9.8563340754494249   7.1581924167858251   16.0423916911
11.6251580679303199   7.1558934533839480   16.0449495087
11.6171011565227484   5.0034064036393122   14.7315841236
9.8638382555578161   5.0024752220714230   14.7320155777
9.8611442507420239   4.9878626281074432   12.1803435545
11.6207207194648756   7.1288481492697713   10.8457414116
9.8555420852091533   7.1287594139650299   10.8462034958
9.8610808924436135   7.1542135083654852   13.4440263819
11.6167874550392067   7.1550056155688377   13.4429523715
11.6162021267565514   4.9878094696778028   12.1796304533
