Al Fe Al  C  H                          
   1.00000000000000     
    14.3189123190275875    0.0000000000000000    0.0000000000000000
     7.1594561595137938   12.4005418228398376    0.0000000000000000
   0.0000000000   0.0000000000   31.3220592741
   Al   Fe   Al   C    H 
   112     1    12     1     1
Selective dynamics
Direct
0.9333333333333300   0.1333333333333329   0.3192638106   F   F   F
0.1333333333333329   0.1333333333333329   0.3192638106   F   F   F
0.3333333333333357   0.1333333333333329   0.3192638106   F   F   F
0.5333333333333314   0.1333333333333329   0.3192638106   F   F   F
0.7333333333333343   0.1333333333333329   0.3192638106   F   F   F
0.9333333333333300   0.3333333333333357   0.3192638106   F   F   F
0.1333333333333329   0.3333333333333357   0.3192638106   F   F   F
0.3333333333333357   0.3333333333333357   0.3192638106   F   F   F
0.5333333333333314   0.3333333333333357   0.3192638106   F   F   F
0.7333333333333343   0.3333333333333357   0.3192638106   F   F   F
0.9333333333333300   0.5333333333333314   0.3192638106   F   F   F
0.1333333333333329   0.5333333333333314   0.3192638106   F   F   F
0.3333333333333357   0.5333333333333314   0.3192638106   F   F   F
0.5333333333333314   0.5333333333333314   0.3192638106   F   F   F
0.7333333333333343   0.5333333333333314   0.3192638106   F   F   F
0.9333333333333300   0.7333333333333343   0.3192638106   F   F   F
0.1333333333333329   0.7333333333333343   0.3192638106   F   F   F
0.3333333333333357   0.7333333333333343   0.3192638106   F   F   F
0.5333333333333314   0.7333333333333343   0.3192638106   F   F   F
0.7333333333333343   0.7333333333333343   0.3192638106   F   F   F
0.9333333333333300   0.9333333333333371   0.3192638106   F   F   F
0.1333333333333329   0.9333333333333371   0.3192638106   F   F   F
0.3333333333333357   0.9333333333333371   0.3192638106   F   F   F
0.5333333333333314   0.9333333333333371   0.3192638106   F   F   F
0.7333333333333343   0.9333333333333371   0.3192638106   F   F   F
0.0000000000000000   0.0000000000000000   0.3939162647   F   F   F
0.2000000000000028   0.0000000000000000   0.3939162647   F   F   F
0.3999999999999986   0.0000000000000000   0.3939162647   F   F   F
0.6000000000000014   0.0000000000000000   0.3939162647   F   F   F
0.7999999999999972   0.0000000000000000   0.3939162647   F   F   F
0.0000000000000000   0.2000000000000028   0.3939162647   F   F   F
0.2000000000000028   0.2000000000000028   0.3939162647   F   F   F
0.3999999999999986   0.2000000000000028   0.3939162647   F   F   F
0.6000000000000014   0.2000000000000028   0.3939162647   F   F   F
0.7999999999999972   0.2000000000000028   0.3939162647   F   F   F
0.0000000000000000   0.3999999999999986   0.3939162647   F   F   F
0.2000000000000028   0.3999999999999986   0.3939162647   F   F   F
0.3999999999999986   0.3999999999999986   0.3939162647   F   F   F
0.6000000000000014   0.3999999999999986   0.3939162647   F   F   F
0.7999999999999972   0.3999999999999986   0.3939162647   F   F   F
0.0000000000000000   0.6000000000000014   0.3939162647   F   F   F
0.2000000000000028   0.6000000000000014   0.3939162647   F   F   F
0.3999999999999986   0.6000000000000014   0.3939162647   F   F   F
0.6000000000000014   0.6000000000000014   0.3939162647   F   F   F
0.7999999999999972   0.6000000000000014   0.3939162647   F   F   F
0.0000000000000000   0.7999999999999972   0.3939162647   F   F   F
0.2000000000000028   0.7999999999999972   0.3939162647   F   F   F
0.3999999999999986   0.7999999999999972   0.3939162647   F   F   F
0.6000000000000014   0.7999999999999972   0.3939162647   F   F   F
0.7999999999999972   0.7999999999999972   0.3939162647   F   F   F
0.0666666666666700   0.0666666666666700   0.4685687187   F   F   F
0.2666666666666657   0.0666666666666700   0.4685687187   F   F   F
0.4666666666666686   0.0666666666666700   0.4685687187   F   F   F
0.6666666666666643   0.0666666666666700   0.4685687187   F   F   F
0.8666666666666671   0.0666666666666700   0.4685687187   F   F   F
0.0666666666666700   0.2666666666666657   0.4685687187   F   F   F
0.2666666666666657   0.2666666666666657   0.4685687187   F   F   F
0.4666666666666686   0.2666666666666657   0.4685687187   F   F   F
0.6666666666666643   0.2666666666666657   0.4685687187   F   F   F
0.8666666666666671   0.2666666666666657   0.4685687187   F   F   F
0.0666666666666700   0.4666666666666686   0.4685687187   F   F   F
0.2666666666666657   0.4666666666666686   0.4685687187   F   F   F
0.4666666666666686   0.4666666666666686   0.4685687187   F   F   F
0.6666666666666643   0.4666666666666686   0.4685687187   F   F   F
0.8666666666666671   0.4666666666666686   0.4685687187   F   F   F
0.0666666666666700   0.6666666666666643   0.4685687187   F   F   F
0.2666666666666657   0.6666666666666643   0.4685687187   F   F   F
0.4666666666666686   0.6666666666666643   0.4685687187   F   F   F
0.6666666666666643   0.6666666666666643   0.4685687187   F   F   F
0.8666666666666671   0.6666666666666643   0.4685687187   F   F   F
0.0666666666666700   0.8666666666666671   0.4685687187   F   F   F
0.2666666666666657   0.8666666666666671   0.4685687187   F   F   F
0.4666666666666686   0.8666666666666671   0.4685687187   F   F   F
0.6666666666666643   0.8666666666666671   0.4685687187   F   F   F
0.8666666666666671   0.8666666666666671   0.4685687187   F   F   F
0.9320673945707240   0.1333625234679129   0.5431194622   T   T   T
0.1346172165826902   0.1333660554482955   0.5431176627   T   T   T
0.3344179359542693   0.1341033288100541   0.5433328484   T   T   T
0.5348246353766953   0.1303471703593793   0.5434035786   T   T   T
0.7315408000083499   0.1340984803244022   0.5433269269   T   T   T
0.9336199206467563   0.3327696692475943   0.5429307301   T   T   T
0.1341116776959264   0.3341955053700007   0.5427630549   T   T   T
0.3354493803003568   0.3343394496984200   0.5437269157   T   T   T
0.5300667490658202   0.3343201984783776   0.5437731059   T   T   T
0.7316227292055505   0.3341808741989106   0.5427863606   T   T   T
0.9327831846723902   0.5330915698002657   0.5428609153   T   T   T
0.1304414337022263   0.5345587535807429   0.5411935867   T   T   T
0.3334332108709024   0.5331167153503029   0.5411105581   T   T   T
0.5349832721791965   0.5344741314612839   0.5412102508   T   T   T
0.7340992804432306   0.5330524445798230   0.5428738140   T   T   T
0.9330134885690894   0.7335743592561915   0.5431020927   T   T   T
0.1339616714039877   0.7316321129904501   0.5430014468   T   T   T
0.3344455414046282   0.7316111205450324   0.5430061751   T   T   T
0.5334342003478290   0.7335293107650208   0.5431134016   T   T   T
0.7336365726525889   0.7327132011207964   0.5432828158   T   T   T
0.9343925115628262   0.9326367880238146   0.5430725882   T   T   T
0.1345289384433698   0.9309969503252167   0.5428875880   T   T   T
0.3330168717023288   0.9326251129371375   0.5430689842   T   T   T
0.5331575798168648   0.9318618794141371   0.5429033044   T   T   T
0.7349987229839557   0.9318545137717980   0.5429075889   T   T   T
0.0004758851303392   -0.0007249411093989   0.6179145476   T   T   T
0.2003821163123677   -0.0006930573767116   0.6179247330   T   T   T
0.4013457864305415   -0.0031441407935461   0.6181773136   T   T   T
0.6032443787153345   -0.0065346333318622   0.6169016259   T   T   T
0.8020686140088905   -0.0033765537176594   0.6182043867   T   T   T
0.0000687274026676   0.2000422222585616   0.6181290219   T   T   T
0.2017467307748895   0.2028417723648158   0.6181891285   T   T   T
0.4001653573126669   0.1987625952555253   0.6198033332   T   T   T
0.6017120377051056   0.1980324217135948   0.6198677308   T   T   T
0.7955933478981732   0.2028303652711700   0.6181944226   T   T   T
0.0010185286083581   0.4001736683585306   0.6175337543   T   T   T
0.2075354023949104   0.4001494161076994   0.6158301767   T   T   T
0.3954044421173626   0.4084658141412776   0.6047734526   T   T   T
0.5920741183769460   0.3998611037795551   0.6159171119   T   T   T
0.7987483463536685   0.4001422765969905   0.6175405330   T   T   T
0.0047383471928406   0.5972735144825316   0.6173180527   T   T   T
0.2106673016641638   0.5886109338201980   0.6157134212   T   T   T
0.4006713071161585   0.5885076209406240   0.6157135555   T   T   T
0.5979225604817240   0.5971430906577412   0.6173544304   T   T   T
0.8003235236551368   0.5992831325291047   0.6186321093   T   T   T
0.0034798536794566   0.7961902055078919   0.6181907991   T   T   T
0.2022338134843724   0.7956003886480402   0.6177194041   T   T   T
0.4003891134804599   0.7962333297027201   0.6181864181   T   T   T
0.6004477181478365   0.7966483190711203   0.6185852091   T   T   T
0.8028778173049731   0.7966774882716813   0.6185715017   T   T   T
0.4577531385010971   0.2856463935539730   0.6465815002   T   T   T
0.4483001131019353   0.3042171487832344   0.6807361894   T   T   T
 
  0.00000000E+00  0.00000000E+00  0.00000000E+00
  0.00000000E+00  0.00000000E+00  0.00000000E+00
  0.00000000E+00  0.00000000E+00  0.00000000E+00
  0.00000000E+00  0.00000000E+00  0.00000000E+00
  0.00000000E+00  0.00000000E+00  0.00000000E+00
  0.00000000E+00  0.00000000E+00  0.00000000E+00
  0.00000000E+00  0.00000000E+00  0.00000000E+00
  0.00000000E+00  0.00000000E+00  0.00000000E+00
  0.00000000E+00  0.00000000E+00  0.00000000E+00
  0.00000000E+00  0.00000000E+00  0.00000000E+00
  0.00000000E+00  0.00000000E+00  0.00000000E+00
  0.00000000E+00  0.00000000E+00  0.00000000E+00
  0.00000000E+00  0.00000000E+00  0.00000000E+00
  0.00000000E+00  0.00000000E+00  0.00000000E+00
  0.00000000E+00  0.00000000E+00  0.00000000E+00
  0.00000000E+00  0.00000000E+00  0.00000000E+00
  0.00000000E+00  0.00000000E+00  0.00000000E+00
  0.00000000E+00  0.00000000E+00  0.00000000E+00
  0.00000000E+00  0.00000000E+00  0.00000000E+00
  0.00000000E+00  0.00000000E+00  0.00000000E+00
  0.00000000E+00  0.00000000E+00  0.00000000E+00
  0.00000000E+00  0.00000000E+00  0.00000000E+00
  0.00000000E+00  0.00000000E+00  0.00000000E+00
  0.00000000E+00  0.00000000E+00  0.00000000E+00
  0.00000000E+00  0.00000000E+00  0.00000000E+00
  0.00000000E+00  0.00000000E+00  0.00000000E+00
  0.00000000E+00  0.00000000E+00  0.00000000E+00
  0.00000000E+00  0.00000000E+00  0.00000000E+00
  0.00000000E+00  0.00000000E+00  0.00000000E+00
  0.00000000E+00  0.00000000E+00  0.00000000E+00
  0.00000000E+00  0.00000000E+00  0.00000000E+00
  0.00000000E+00  0.00000000E+00  0.00000000E+00
  0.00000000E+00  0.00000000E+00  0.00000000E+00
  0.00000000E+00  0.00000000E+00  0.00000000E+00
  0.00000000E+00  0.00000000E+00  0.00000000E+00
  0.00000000E+00  0.00000000E+00  0.00000000E+00
  0.00000000E+00  0.00000000E+00  0.00000000E+00
  0.00000000E+00  0.00000000E+00  0.00000000E+00
  0.00000000E+00  0.00000000E+00  0.00000000E+00
  0.00000000E+00  0.00000000E+00  0.00000000E+00
  0.00000000E+00  0.00000000E+00  0.00000000E+00
  0.00000000E+00  0.00000000E+00  0.00000000E+00
  0.00000000E+00  0.00000000E+00  0.00000000E+00
  0.00000000E+00  0.00000000E+00  0.00000000E+00
  0.00000000E+00  0.00000000E+00  0.00000000E+00
  0.00000000E+00  0.00000000E+00  0.00000000E+00
  0.00000000E+00  0.00000000E+00  0.00000000E+00
  0.00000000E+00  0.00000000E+00  0.00000000E+00
  0.00000000E+00  0.00000000E+00  0.00000000E+00
  0.00000000E+00  0.00000000E+00  0.00000000E+00
  0.00000000E+00  0.00000000E+00  0.00000000E+00
  0.00000000E+00  0.00000000E+00  0.00000000E+00
  0.00000000E+00  0.00000000E+00  0.00000000E+00
  0.00000000E+00  0.00000000E+00  0.00000000E+00
  0.00000000E+00  0.00000000E+00  0.00000000E+00
  0.00000000E+00  0.00000000E+00  0.00000000E+00
  0.00000000E+00  0.00000000E+00  0.00000000E+00
  0.00000000E+00  0.00000000E+00  0.00000000E+00
  0.00000000E+00  0.00000000E+00  0.00000000E+00
  0.00000000E+00  0.00000000E+00  0.00000000E+00
  0.00000000E+00  0.00000000E+00  0.00000000E+00
  0.00000000E+00  0.00000000E+00  0.00000000E+00
  0.00000000E+00  0.00000000E+00  0.00000000E+00
  0.00000000E+00  0.00000000E+00  0.00000000E+00
  0.00000000E+00  0.00000000E+00  0.00000000E+00
  0.00000000E+00  0.00000000E+00  0.00000000E+00
  0.00000000E+00  0.00000000E+00  0.00000000E+00
  0.00000000E+00  0.00000000E+00  0.00000000E+00
  0.00000000E+00  0.00000000E+00  0.00000000E+00
  0.00000000E+00  0.00000000E+00  0.00000000E+00
  0.00000000E+00  0.00000000E+00  0.00000000E+00
  0.00000000E+00  0.00000000E+00  0.00000000E+00
  0.00000000E+00  0.00000000E+00  0.00000000E+00
  0.00000000E+00  0.00000000E+00  0.00000000E+00
  0.00000000E+00  0.00000000E+00  0.00000000E+00
  0.00000000E+00  0.00000000E+00  0.00000000E+00
  0.00000000E+00  0.00000000E+00  0.00000000E+00
  0.00000000E+00  0.00000000E+00  0.00000000E+00
  0.00000000E+00  0.00000000E+00  0.00000000E+00
  0.00000000E+00  0.00000000E+00  0.00000000E+00
  0.00000000E+00  0.00000000E+00  0.00000000E+00
  0.00000000E+00  0.00000000E+00  0.00000000E+00
  0.00000000E+00  0.00000000E+00  0.00000000E+00
  0.00000000E+00  0.00000000E+00  0.00000000E+00
  0.00000000E+00  0.00000000E+00  0.00000000E+00
  0.00000000E+00  0.00000000E+00  0.00000000E+00
  0.00000000E+00  0.00000000E+00  0.00000000E+00
  0.00000000E+00  0.00000000E+00  0.00000000E+00
  0.00000000E+00  0.00000000E+00  0.00000000E+00
  0.00000000E+00  0.00000000E+00  0.00000000E+00
  0.00000000E+00  0.00000000E+00  0.00000000E+00
  0.00000000E+00  0.00000000E+00  0.00000000E+00
  0.00000000E+00  0.00000000E+00  0.00000000E+00
  0.00000000E+00  0.00000000E+00  0.00000000E+00
  0.00000000E+00  0.00000000E+00  0.00000000E+00
  0.00000000E+00  0.00000000E+00  0.00000000E+00
  0.00000000E+00  0.00000000E+00  0.00000000E+00
  0.00000000E+00  0.00000000E+00  0.00000000E+00
  0.00000000E+00  0.00000000E+00  0.00000000E+00
  0.00000000E+00  0.00000000E+00  0.00000000E+00
  0.00000000E+00  0.00000000E+00  0.00000000E+00
  0.00000000E+00  0.00000000E+00  0.00000000E+00
  0.00000000E+00  0.00000000E+00  0.00000000E+00
  0.00000000E+00  0.00000000E+00  0.00000000E+00
  0.00000000E+00  0.00000000E+00  0.00000000E+00
  0.00000000E+00  0.00000000E+00  0.00000000E+00
  0.00000000E+00  0.00000000E+00  0.00000000E+00
  0.00000000E+00  0.00000000E+00  0.00000000E+00
  0.00000000E+00  0.00000000E+00  0.00000000E+00
  0.00000000E+00  0.00000000E+00  0.00000000E+00
  0.00000000E+00  0.00000000E+00  0.00000000E+00
  0.00000000E+00  0.00000000E+00  0.00000000E+00
  0.00000000E+00  0.00000000E+00  0.00000000E+00
  0.00000000E+00  0.00000000E+00  0.00000000E+00
  0.00000000E+00  0.00000000E+00  0.00000000E+00
  0.00000000E+00  0.00000000E+00  0.00000000E+00
  0.00000000E+00  0.00000000E+00  0.00000000E+00
  0.00000000E+00  0.00000000E+00  0.00000000E+00
  0.00000000E+00  0.00000000E+00  0.00000000E+00
  0.00000000E+00  0.00000000E+00  0.00000000E+00
  0.00000000E+00  0.00000000E+00  0.00000000E+00
  0.00000000E+00  0.00000000E+00  0.00000000E+00
  0.00000000E+00  0.00000000E+00  0.00000000E+00
  0.00000000E+00  0.00000000E+00  0.00000000E+00
  0.00000000E+00  0.00000000E+00  0.00000000E+00
  0.00000000E+00  0.00000000E+00  0.00000000E+00
  0.00000000E+00  0.00000000E+00  0.00000000E+00
