Al Fe  O 
 1.0000000000000000
    14.3189123190275875    0.0000000000000000    0.0000000000000000
     7.1594561595137938   12.4005418228398376    0.0000000000000000
   0.0000000000   0.0000000000   30.3423773265
 Al  Fe  O  
 123   2   1
Selective dynamics
Cartesian
15.0571373144651712   2.0711380902692911   10.0000000000   F   F   F
3.6020074592431430   2.0711380902692911   10.0000000000   F   F   F
6.4657899230487015   2.0711380902692911   10.0000000000   F   F   F
9.3295723868541582   2.0711380902692911   10.0000000000   F   F   F
12.1933548506597145   2.0711380902692911   10.0000000000   F   F   F
16.4890285463679511   4.5512464548372940   10.0000000000   F   F   F
5.0338986911459216   4.5512464548372940   10.0000000000   F   F   F
7.8976811549514796   4.5512464548372940   10.0000000000   F   F   F
10.7614636187569364   4.5512464548372940   10.0000000000   F   F   F
13.6252460825624944   4.5512464548372940   10.0000000000   F   F   F
17.9209197782706795   7.0313548194052080   10.0000000000   F   F   F
6.4657899230486500   7.0313548194052080   10.0000000000   F   F   F
9.3295723868542080   7.0313548194052080   10.0000000000   F   F   F
12.1933548506596647   7.0313548194052080   10.0000000000   F   F   F
15.0571373144652227   7.0313548194052080   10.0000000000   F   F   F
19.3528110101734541   9.5114631839732109   10.0000000000   F   F   F
7.8976811549514290   9.5114631839732109   10.0000000000   F   F   F
10.7614636187569861   9.5114631839732109   10.0000000000   F   F   F
13.6252460825624429   9.5114631839732109   10.0000000000   F   F   F
16.4890285463680009   9.5114631839732109   10.0000000000   F   F   F
20.7847022420762357   11.9915715485412147   10.0000000000   F   F   F
9.3295723868542080   11.9915715485412147   10.0000000000   F   F   F
12.1933548506597660   11.9915715485412147   10.0000000000   F   F   F
15.0571373144652227   11.9915715485412147   10.0000000000   F   F   F
17.9209197782707790   11.9915715485412147   10.0000000000   F   F   F
0.7382249954376352   0.4177325138906518   12.3382685902   F   F   F
3.6020074592431928   0.4177325138906518   12.3382685902   F   F   F
6.4657899230486500   0.4177325138906518   12.3382685902   F   F   F
9.3295723868542080   0.4177325138906518   12.3382685902   F   F   F
12.1933548506596647   0.4177325138906518   12.3382685902   F   F   F
2.1701162273404142   2.8978408784586538   12.3382685902   F   F   F
5.0338986911459713   2.8978408784586538   12.3382685902   F   F   F
7.8976811549514290   2.8978408784586538   12.3382685902   F   F   F
10.7614636187569861   2.8978408784586538   12.3382685902   F   F   F
13.6252460825624429   2.8978408784586538   12.3382685902   F   F   F
3.6020074592431426   5.3779492430265696   12.3382685902   F   F   F
6.4657899230486997   5.3779492430265696   12.3382685902   F   F   F
9.3295723868541582   5.3779492430265696   12.3382685902   F   F   F
12.1933548506597145   5.3779492430265696   12.3382685902   F   F   F
15.0571373144651712   5.3779492430265696   12.3382685902   F   F   F
5.0338986911459216   7.8580576075945716   12.3382685902   F   F   F
7.8976811549514796   7.8580576075945716   12.3382685902   F   F   F
10.7614636187569364   7.8580576075945716   12.3382685902   F   F   F
13.6252460825624944   7.8580576075945716   12.3382685902   F   F   F
16.4890285463679511   7.8580576075945716   12.3382685902   F   F   F
6.4657899230486500   10.3381659721624874   12.3382685902   F   F   F
9.3295723868542080   10.3381659721624874   12.3382685902   F   F   F
12.1933548506596647   10.3381659721624874   12.3382685902   F   F   F
15.0571373144652227   10.3381659721624874   12.3382685902   F   F   F
17.9209197782706795   10.3381659721624874   12.3382685902   F   F   F
2.1701162273404657   1.2444353020800156   14.6765371804   F   F   F
5.0338986911459216   1.2444353020800156   14.6765371804   F   F   F
7.8976811549514805   1.2444353020800156   14.6765371804   F   F   F
10.7614636187569364   1.2444353020800156   14.6765371804   F   F   F
13.6252460825624944   1.2444353020800156   14.6765371804   F   F   F
3.6020074592431937   3.7245436666479299   14.6765371804   F   F   F
6.4657899230486500   3.7245436666479299   14.6765371804   F   F   F
9.3295723868542080   3.7245436666479299   14.6765371804   F   F   F
12.1933548506596647   3.7245436666479299   14.6765371804   F   F   F
15.0571373144652227   3.7245436666479299   14.6765371804   F   F   F
5.0338986911459731   6.2046520312159332   14.6765371804   F   F   F
7.8976811549514299   6.2046520312159332   14.6765371804   F   F   F
10.7614636187569879   6.2046520312159332   14.6765371804   F   F   F
13.6252460825624446   6.2046520312159332   14.6765371804   F   F   F
16.4890285463680044   6.2046520312159332   14.6765371804   F   F   F
6.4657899230487015   8.6847603957838473   14.6765371804   F   F   F
9.3295723868541582   8.6847603957838473   14.6765371804   F   F   F
12.1933548506597162   8.6847603957838473   14.6765371804   F   F   F
15.0571373144651730   8.6847603957838473   14.6765371804   F   F   F
17.9209197782707292   8.6847603957838473   14.6765371804   F   F   F
7.8976811549514805   11.1648687603518511   14.6765371804   F   F   F
10.7614636187569364   11.1648687603518511   14.6765371804   F   F   F
13.6252460825624961   11.1648687603518511   14.6765371804   F   F   F
16.4890285463679547   11.1648687603518511   14.6765371804   F   F   F
19.3528110101735109   11.1648687603518511   14.6765371804   F   F   F
15.0571381836440885   2.0758238630181758   17.0061446214   T   T   T
3.6292667963127800   2.0669025851557130   17.0124745172   T   T   T
6.5032626156177775   2.0910279998389596   16.9924023870   T   T   T
9.2920991474563035   2.0910300872666232   16.9923577836   T   T   T
12.1661241622635750   2.0668953627674744   17.0124735976   T   T   T
16.4943510594349902   4.5528792417914365   17.0034689145   T   T   T
5.0309677671002540   4.5500329342022905   16.9556423710   T   T   T
7.8976959386360495   4.6564976716859068   17.0405199570   T   T   T
10.7642925304833703   4.5500880117215381   16.9557193853   T   T   T
13.6199589082532082   4.5528763329029944   17.0034725580   T   T   T
17.8777294507751208   7.0509600375827750   16.9733678583   T   T   T
6.4083032121708792   7.0056028258154708   16.9547831872   T   T   T
9.3870722033606473   7.0055514744750820   16.9547220680   T   T   T
12.2365271068129324   7.0509496896743729   16.9733547760   T   T   T
15.0571345679012669   7.0396388045144258   17.0091417133   T   T   T
19.3419576516244902   9.4888788863551721   17.0263799162   T   T   T
7.8976504094812725   9.4091242878677708   17.0461062579   T   T   T
10.7723419918345673   9.4889020231593602   17.0263779264   T   T   T
13.6362904072601427   9.5317022120313712   17.0227538574   T   T   T
16.4779305694745020   9.5316915198397592   17.0227628032   T   T   T
20.7924140698710644   11.9533572101440786   17.0190076596   T   T   T
9.3218693837664048   11.9533198664461349   17.0190122051   T   T   T
12.1952955245794019   11.9898520818427148   17.0213141096   T   T   T
15.0571461636575847   12.0026250516288577   17.0257314179   T   T   T
17.9190342418352344   11.9898597663151527   17.0212871936   T   T   T
0.7382331583098320   0.4011148796899589   19.3484070067   T   T   T
3.6132452474607821   0.4144903277925178   19.3569662047   T   T   T
6.4876943787979631   0.5273453352209474   19.3479702786   T   T   T
9.3076721692641762   0.5273459036420119   19.3479602765   T   T   T
12.1821314875983351   0.4145281197210283   19.3569864846   T   T   T
2.1994521552620423   2.9054902880532985   19.3459736011   T   T   T
5.1335650543713349   3.0207280180341094   19.3086919417   T   T   T
7.8976154498572839   3.3649620502197140   19.3761936851   T   T   T
10.6618077833620841   3.0206894912745903   19.3086842059   T   T   T
13.5959192612123676   2.9055023945423524   19.3459773390   T   T   T
3.6762021811816896   5.3819827609377739   19.2949997446   T   T   T
12.1191735641568759   5.3819542093603383   19.2949566170   T   T   T
15.0571224154931418   5.3753585445716796   19.3542143086   T   T   T
5.1161986369483374   7.7419276984026180   19.3174955656   T   T   T
7.8976240633110315   7.3658749393073224   19.2770353745   T   T   T
10.6791678167153403   7.7419774856764079   19.3174940567   T   T   T
13.5952786554669185   7.8418978032262139   19.3571826825   T   T   T
16.5189528101411405   7.8418982908561272   19.3571866845   T   T   T
6.4783986370048012   10.2501419461255807   19.3610401608   T   T   T
9.3169567214395688   10.2501293573338188   19.3610512508   T   T   T
12.1943481760407906   10.3425173608702856   19.3888492843   T   T   T
15.0571395176937397   10.3652998467728334   19.4101768436   T   T   T
17.9199217392267443   10.3425648369254528   19.3888315718   T   T   T
6.2819592035590297   5.3884681446598854   18.9119625478   T   T   T
9.5134533489443260   5.3884369862694514   18.9118767795   T   T   T
7.9543550449074178   5.6365356501863086   20.3423773265   T   T   T
