Al Fe Al  C  H  C  H                    
   1.00000000000000     
    14.3189123190275875    0.0000000000000000    0.0000000000000000
     7.1594561595137938   12.4005418228398376    0.0000000000000000
   0.0000000000   0.0000000000   38.5344691655
   Al   Fe   Al   C    H    C    H 
   112     1    12     6    13     1     2
Selective dynamics
Direct
0.9333333333333300   0.1333333333333329   0.2595079215   F   F   F
0.1333333333333329   0.1333333333333329   0.2595079215   F   F   F
0.3333333333333357   0.1333333333333329   0.2595079215   F   F   F
0.5333333333333314   0.1333333333333329   0.2595079215   F   F   F
0.7333333333333343   0.1333333333333329   0.2595079215   F   F   F
0.9333333333333300   0.3333333333333357   0.2595079215   F   F   F
0.1333333333333329   0.3333333333333357   0.2595079215   F   F   F
0.3333333333333357   0.3333333333333357   0.2595079215   F   F   F
0.5333333333333314   0.3333333333333357   0.2595079215   F   F   F
0.7333333333333343   0.3333333333333357   0.2595079215   F   F   F
0.9333333333333300   0.5333333333333314   0.2595079215   F   F   F
0.1333333333333329   0.5333333333333314   0.2595079215   F   F   F
0.3333333333333357   0.5333333333333314   0.2595079215   F   F   F
0.5333333333333314   0.5333333333333314   0.2595079215   F   F   F
0.7333333333333343   0.5333333333333314   0.2595079215   F   F   F
0.9333333333333300   0.7333333333333343   0.2595079215   F   F   F
0.1333333333333329   0.7333333333333343   0.2595079215   F   F   F
0.3333333333333357   0.7333333333333343   0.2595079215   F   F   F
0.5333333333333314   0.7333333333333343   0.2595079215   F   F   F
0.7333333333333343   0.7333333333333343   0.2595079215   F   F   F
0.9333333333333300   0.9333333333333371   0.2595079215   F   F   F
0.1333333333333329   0.9333333333333371   0.2595079215   F   F   F
0.3333333333333357   0.9333333333333371   0.2595079215   F   F   F
0.5333333333333314   0.9333333333333371   0.2595079215   F   F   F
0.7333333333333343   0.9333333333333371   0.2595079215   F   F   F
0.0000000000000000   0.0000000000000000   0.3201878437   F   F   F
0.2000000000000028   0.0000000000000000   0.3201878437   F   F   F
0.3999999999999986   0.0000000000000000   0.3201878437   F   F   F
0.6000000000000014   0.0000000000000000   0.3201878437   F   F   F
0.7999999999999972   0.0000000000000000   0.3201878437   F   F   F
0.0000000000000000   0.2000000000000028   0.3201878437   F   F   F
0.2000000000000028   0.2000000000000028   0.3201878437   F   F   F
0.3999999999999986   0.2000000000000028   0.3201878437   F   F   F
0.6000000000000014   0.2000000000000028   0.3201878437   F   F   F
0.7999999999999972   0.2000000000000028   0.3201878437   F   F   F
0.0000000000000000   0.3999999999999986   0.3201878437   F   F   F
0.2000000000000028   0.3999999999999986   0.3201878437   F   F   F
0.3999999999999986   0.3999999999999986   0.3201878437   F   F   F
0.6000000000000014   0.3999999999999986   0.3201878437   F   F   F
0.7999999999999972   0.3999999999999986   0.3201878437   F   F   F
0.0000000000000000   0.6000000000000014   0.3201878437   F   F   F
0.2000000000000028   0.6000000000000014   0.3201878437   F   F   F
0.3999999999999986   0.6000000000000014   0.3201878437   F   F   F
0.6000000000000014   0.6000000000000014   0.3201878437   F   F   F
0.7999999999999972   0.6000000000000014   0.3201878437   F   F   F
0.0000000000000000   0.7999999999999972   0.3201878437   F   F   F
0.2000000000000028   0.7999999999999972   0.3201878437   F   F   F
0.3999999999999986   0.7999999999999972   0.3201878437   F   F   F
0.6000000000000014   0.7999999999999972   0.3201878437   F   F   F
0.7999999999999972   0.7999999999999972   0.3201878437   F   F   F
0.0666666666666700   0.0666666666666700   0.3808677659   F   F   F
0.2666666666666657   0.0666666666666700   0.3808677659   F   F   F
0.4666666666666686   0.0666666666666700   0.3808677659   F   F   F
0.6666666666666643   0.0666666666666700   0.3808677659   F   F   F
0.8666666666666671   0.0666666666666700   0.3808677659   F   F   F
0.0666666666666700   0.2666666666666657   0.3808677659   F   F   F
0.2666666666666657   0.2666666666666657   0.3808677659   F   F   F
0.4666666666666686   0.2666666666666657   0.3808677659   F   F   F
0.6666666666666643   0.2666666666666657   0.3808677659   F   F   F
0.8666666666666671   0.2666666666666657   0.3808677659   F   F   F
0.0666666666666700   0.4666666666666686   0.3808677659   F   F   F
0.2666666666666657   0.4666666666666686   0.3808677659   F   F   F
0.4666666666666686   0.4666666666666686   0.3808677659   F   F   F
0.6666666666666643   0.4666666666666686   0.3808677659   F   F   F
0.8666666666666671   0.4666666666666686   0.3808677659   F   F   F
0.0666666666666700   0.6666666666666643   0.3808677659   F   F   F
0.2666666666666657   0.6666666666666643   0.3808677659   F   F   F
0.4666666666666686   0.6666666666666643   0.3808677659   F   F   F
0.6666666666666643   0.6666666666666643   0.3808677659   F   F   F
0.8666666666666671   0.6666666666666643   0.3808677659   F   F   F
0.0666666666666700   0.8666666666666671   0.3808677659   F   F   F
0.2666666666666657   0.8666666666666671   0.3808677659   F   F   F
0.4666666666666686   0.8666666666666671   0.3808677659   F   F   F
0.6666666666666643   0.8666666666666671   0.3808677659   F   F   F
0.8666666666666671   0.8666666666666671   0.3808677659   F   F   F
0.9317970107999399   0.1337708811107648   0.4415197851   T   T   T
0.1346732276194895   0.1335432475576528   0.4414762959   T   T   T
0.3351967908590382   0.1343770086509984   0.4416869332   T   T   T
0.5346344446631320   0.1311349957190178   0.4431286693   T   T   T
0.7306158742432932   0.1344053294927736   0.4417367965   T   T   T
0.9340835809640772   0.3316706844158232   0.4415186069   T   T   T
0.1351754865577209   0.3342697683818886   0.4412202562   T   T   T
0.3381979084914425   0.3316596697616597   0.4420620253   T   T   T
0.5302986631769647   0.3329096861513895   0.4422205399   T   T   T
0.7311073085428814   0.3337258929684235   0.4414347576   T   T   T
0.9337098616855746   0.5319742940173791   0.4411867765   T   T   T
0.1332902775277443   0.5356280417245517   0.4406908040   T   T   T
0.3280431557094924   0.5381415237569074   0.4402098201   T   T   T
0.5334531458250379   0.5339762467611489   0.4400046431   T   T   T
0.7345509933221847   0.5319953980984455   0.4412967137   T   T   T
0.9331672103335816   0.7325118051957127   0.4411238648   T   T   T
0.1326734120482258   0.7329688267211596   0.4414205755   T   T   T
0.3335299518680876   0.7344190973269923   0.4409045117   T   T   T
0.5341499804924847   0.7325654119329278   0.4411841099   T   T   T
0.7343464908904723   0.7313872517297009   0.4413444324   T   T   T
0.9336158976352196   0.9335105674208940   0.4413430870   T   T   T
0.1329112117724587   0.9335695118044282   0.4412344088   T   T   T
0.3331467909423597   0.9331881321394441   0.4414610598   T   T   T
0.5337204116869636   0.9304669236839737   0.4406424917   T   T   T
0.7356646358372653   0.9305210149513810   0.4406366281   T   T   T
-0.0011974182365360   0.0000512141969435   0.5022583215   T   T   T
0.2009383239431468   -0.0009611735860252   0.5022881142   T   T   T
0.4022102694892895   0.9979724323246140   0.5020047595   T   T   T
0.6059377848087855   0.9879263498616446   0.4999152502   T   T   T
0.7998030054154731   0.9974525135457356   0.5020812164   T   T   T
0.0006982999370683   0.1986954443319434   0.5026881906   T   T   T
0.2013831670971656   0.2013385937226982   0.5024811003   T   T   T
0.3968129644858663   0.2043353263308262   0.5062205112   T   T   T
0.5984128120896189   0.2050888585306514   0.5061527776   T   T   T
0.7974515573440627   0.2010468358631008   0.5026079416   T   T   T
0.0020583590865271   0.3981172116688398   0.5020144356   T   T   T
0.2071531183213441   0.4020793182617968   0.4992987586   T   T   T
0.3902882238327156   0.4197543350049492   0.4897608272   T   T   T
0.5907390868749050   0.4028878780922992   0.5005080544   T   T   T
0.7987097704340924   0.3987275868270728   0.5021275179   T   T   T
0.0033912997023909   0.5971527936679071   0.5012097252   T   T   T
0.2097931836492307   0.5924238298615927   0.5155692082   T   T   T
0.3985169930971040   0.5970544431472367   0.4994483186   T   T   T
0.5987642267723786   0.5970081381256006   0.5016784362   T   T   T
0.8019370572863730   0.5967425960702332   0.5027584016   T   T   T
0.0017777405447140   0.7968118754851916   0.5014466728   T   T   T
0.2002526040853078   0.7998813436296039   0.5014436234   T   T   T
0.4009227932226191   0.7978018531637305   0.5023736680   T   T   T
0.6015351295400087   0.7944109978185215   0.5024942056   T   T   T
0.8039028107393974   0.7944862308112559   0.5024844713   T   T   T
0.2111099029384100   0.5835089214900336   0.5682374704   T   T   T
0.1540988696565031   0.6629167453940218   0.6291549569   T   T   T
0.0991262183892059   0.7397804836676118   0.6904932429   T   T   T
0.0875766763996108   0.7634356405901968   0.6514327502   T   T   T
0.1436423624859362   0.6850250935780841   0.5899218540   T   T   T
0.0334171619496842   0.8401409598941625   0.7128557022   T   T   T
0.1883565964055988   0.5225740868383395   0.5744957940   T   T   T
0.0581594171238343   0.7221205976800430   0.5826222598   T   T   T
0.1299674557696806   0.6028092807740293   0.6348991090   T   T   T
0.2394294161423205   0.6258852278960177   0.6364855351   T   T   T
0.1671756970492282   0.7456328219516232   0.5841885720   T   T   T
0.1117451388044731   0.8235404246339973   0.6457284327   T   T   T
0.0021376438244800   0.8007665955237008   0.6441801326   T   T   T
0.0745212763695947   0.6801049421256535   0.6961861157   T   T   T
0.1845517949483343   0.7019867844072755   0.6976359363   T   T   T
0.0581282431775880   0.9001310530946676   0.7083811117   T   T   T
0.0436619871009139   0.8202722426186920   0.7404920785   T   T   T
0.2968277950012949   0.5470376115402397   0.5753175697   T   T   T
-0.0525687958361334   0.8780756732034491   0.7069219008   T   T   T
0.4915774510875399   0.2170866135862623   0.5419628658   T   T   T
0.5244523873175047   0.1512272044043235   0.5609357090   T   T   T
0.4528210331430302   0.2943790173169680   0.5558437394   T   T   T
 
  0.00000000E+00  0.00000000E+00  0.00000000E+00
  0.00000000E+00  0.00000000E+00  0.00000000E+00
  0.00000000E+00  0.00000000E+00  0.00000000E+00
  0.00000000E+00  0.00000000E+00  0.00000000E+00
  0.00000000E+00  0.00000000E+00  0.00000000E+00
  0.00000000E+00  0.00000000E+00  0.00000000E+00
  0.00000000E+00  0.00000000E+00  0.00000000E+00
  0.00000000E+00  0.00000000E+00  0.00000000E+00
  0.00000000E+00  0.00000000E+00  0.00000000E+00
  0.00000000E+00  0.00000000E+00  0.00000000E+00
  0.00000000E+00  0.00000000E+00  0.00000000E+00
  0.00000000E+00  0.00000000E+00  0.00000000E+00
  0.00000000E+00  0.00000000E+00  0.00000000E+00
  0.00000000E+00  0.00000000E+00  0.00000000E+00
  0.00000000E+00  0.00000000E+00  0.00000000E+00
  0.00000000E+00  0.00000000E+00  0.00000000E+00
  0.00000000E+00  0.00000000E+00  0.00000000E+00
  0.00000000E+00  0.00000000E+00  0.00000000E+00
  0.00000000E+00  0.00000000E+00  0.00000000E+00
  0.00000000E+00  0.00000000E+00  0.00000000E+00
  0.00000000E+00  0.00000000E+00  0.00000000E+00
  0.00000000E+00  0.00000000E+00  0.00000000E+00
  0.00000000E+00  0.00000000E+00  0.00000000E+00
  0.00000000E+00  0.00000000E+00  0.00000000E+00
  0.00000000E+00  0.00000000E+00  0.00000000E+00
  0.00000000E+00  0.00000000E+00  0.00000000E+00
  0.00000000E+00  0.00000000E+00  0.00000000E+00
  0.00000000E+00  0.00000000E+00  0.00000000E+00
  0.00000000E+00  0.00000000E+00  0.00000000E+00
  0.00000000E+00  0.00000000E+00  0.00000000E+00
  0.00000000E+00  0.00000000E+00  0.00000000E+00
  0.00000000E+00  0.00000000E+00  0.00000000E+00
  0.00000000E+00  0.00000000E+00  0.00000000E+00
  0.00000000E+00  0.00000000E+00  0.00000000E+00
  0.00000000E+00  0.00000000E+00  0.00000000E+00
  0.00000000E+00  0.00000000E+00  0.00000000E+00
  0.00000000E+00  0.00000000E+00  0.00000000E+00
  0.00000000E+00  0.00000000E+00  0.00000000E+00
  0.00000000E+00  0.00000000E+00  0.00000000E+00
  0.00000000E+00  0.00000000E+00  0.00000000E+00
  0.00000000E+00  0.00000000E+00  0.00000000E+00
  0.00000000E+00  0.00000000E+00  0.00000000E+00
  0.00000000E+00  0.00000000E+00  0.00000000E+00
  0.00000000E+00  0.00000000E+00  0.00000000E+00
  0.00000000E+00  0.00000000E+00  0.00000000E+00
  0.00000000E+00  0.00000000E+00  0.00000000E+00
  0.00000000E+00  0.00000000E+00  0.00000000E+00
  0.00000000E+00  0.00000000E+00  0.00000000E+00
  0.00000000E+00  0.00000000E+00  0.00000000E+00
  0.00000000E+00  0.00000000E+00  0.00000000E+00
  0.00000000E+00  0.00000000E+00  0.00000000E+00
  0.00000000E+00  0.00000000E+00  0.00000000E+00
  0.00000000E+00  0.00000000E+00  0.00000000E+00
  0.00000000E+00  0.00000000E+00  0.00000000E+00
  0.00000000E+00  0.00000000E+00  0.00000000E+00
  0.00000000E+00  0.00000000E+00  0.00000000E+00
  0.00000000E+00  0.00000000E+00  0.00000000E+00
  0.00000000E+00  0.00000000E+00  0.00000000E+00
  0.00000000E+00  0.00000000E+00  0.00000000E+00
  0.00000000E+00  0.00000000E+00  0.00000000E+00
  0.00000000E+00  0.00000000E+00  0.00000000E+00
  0.00000000E+00  0.00000000E+00  0.00000000E+00
  0.00000000E+00  0.00000000E+00  0.00000000E+00
  0.00000000E+00  0.00000000E+00  0.00000000E+00
  0.00000000E+00  0.00000000E+00  0.00000000E+00
  0.00000000E+00  0.00000000E+00  0.00000000E+00
  0.00000000E+00  0.00000000E+00  0.00000000E+00
  0.00000000E+00  0.00000000E+00  0.00000000E+00
  0.00000000E+00  0.00000000E+00  0.00000000E+00
  0.00000000E+00  0.00000000E+00  0.00000000E+00
  0.00000000E+00  0.00000000E+00  0.00000000E+00
  0.00000000E+00  0.00000000E+00  0.00000000E+00
  0.00000000E+00  0.00000000E+00  0.00000000E+00
  0.00000000E+00  0.00000000E+00  0.00000000E+00
  0.00000000E+00  0.00000000E+00  0.00000000E+00
  0.00000000E+00  0.00000000E+00  0.00000000E+00
  0.00000000E+00  0.00000000E+00  0.00000000E+00
  0.00000000E+00  0.00000000E+00  0.00000000E+00
  0.00000000E+00  0.00000000E+00  0.00000000E+00
  0.00000000E+00  0.00000000E+00  0.00000000E+00
  0.00000000E+00  0.00000000E+00  0.00000000E+00
  0.00000000E+00  0.00000000E+00  0.00000000E+00
  0.00000000E+00  0.00000000E+00  0.00000000E+00
  0.00000000E+00  0.00000000E+00  0.00000000E+00
  0.00000000E+00  0.00000000E+00  0.00000000E+00
  0.00000000E+00  0.00000000E+00  0.00000000E+00
  0.00000000E+00  0.00000000E+00  0.00000000E+00
  0.00000000E+00  0.00000000E+00  0.00000000E+00
  0.00000000E+00  0.00000000E+00  0.00000000E+00
  0.00000000E+00  0.00000000E+00  0.00000000E+00
  0.00000000E+00  0.00000000E+00  0.00000000E+00
  0.00000000E+00  0.00000000E+00  0.00000000E+00
  0.00000000E+00  0.00000000E+00  0.00000000E+00
  0.00000000E+00  0.00000000E+00  0.00000000E+00
  0.00000000E+00  0.00000000E+00  0.00000000E+00
  0.00000000E+00  0.00000000E+00  0.00000000E+00
  0.00000000E+00  0.00000000E+00  0.00000000E+00
  0.00000000E+00  0.00000000E+00  0.00000000E+00
  0.00000000E+00  0.00000000E+00  0.00000000E+00
  0.00000000E+00  0.00000000E+00  0.00000000E+00
  0.00000000E+00  0.00000000E+00  0.00000000E+00
  0.00000000E+00  0.00000000E+00  0.00000000E+00
  0.00000000E+00  0.00000000E+00  0.00000000E+00
  0.00000000E+00  0.00000000E+00  0.00000000E+00
  0.00000000E+00  0.00000000E+00  0.00000000E+00
  0.00000000E+00  0.00000000E+00  0.00000000E+00
  0.00000000E+00  0.00000000E+00  0.00000000E+00
  0.00000000E+00  0.00000000E+00  0.00000000E+00
  0.00000000E+00  0.00000000E+00  0.00000000E+00
  0.00000000E+00  0.00000000E+00  0.00000000E+00
  0.00000000E+00  0.00000000E+00  0.00000000E+00
  0.00000000E+00  0.00000000E+00  0.00000000E+00
  0.00000000E+00  0.00000000E+00  0.00000000E+00
  0.00000000E+00  0.00000000E+00  0.00000000E+00
  0.00000000E+00  0.00000000E+00  0.00000000E+00
  0.00000000E+00  0.00000000E+00  0.00000000E+00
  0.00000000E+00  0.00000000E+00  0.00000000E+00
  0.00000000E+00  0.00000000E+00  0.00000000E+00
  0.00000000E+00  0.00000000E+00  0.00000000E+00
  0.00000000E+00  0.00000000E+00  0.00000000E+00
  0.00000000E+00  0.00000000E+00  0.00000000E+00
  0.00000000E+00  0.00000000E+00  0.00000000E+00
  0.00000000E+00  0.00000000E+00  0.00000000E+00
  0.00000000E+00  0.00000000E+00  0.00000000E+00
  0.00000000E+00  0.00000000E+00  0.00000000E+00
  0.00000000E+00  0.00000000E+00  0.00000000E+00
  0.00000000E+00  0.00000000E+00  0.00000000E+00
  0.00000000E+00  0.00000000E+00  0.00000000E+00
  0.00000000E+00  0.00000000E+00  0.00000000E+00
  0.00000000E+00  0.00000000E+00  0.00000000E+00
  0.00000000E+00  0.00000000E+00  0.00000000E+00
  0.00000000E+00  0.00000000E+00  0.00000000E+00
  0.00000000E+00  0.00000000E+00  0.00000000E+00
  0.00000000E+00  0.00000000E+00  0.00000000E+00
  0.00000000E+00  0.00000000E+00  0.00000000E+00
  0.00000000E+00  0.00000000E+00  0.00000000E+00
  0.00000000E+00  0.00000000E+00  0.00000000E+00
  0.00000000E+00  0.00000000E+00  0.00000000E+00
  0.00000000E+00  0.00000000E+00  0.00000000E+00
  0.00000000E+00  0.00000000E+00  0.00000000E+00
  0.00000000E+00  0.00000000E+00  0.00000000E+00
  0.00000000E+00  0.00000000E+00  0.00000000E+00
  0.00000000E+00  0.00000000E+00  0.00000000E+00
  0.00000000E+00  0.00000000E+00  0.00000000E+00
  0.00000000E+00  0.00000000E+00  0.00000000E+00
  0.00000000E+00  0.00000000E+00  0.00000000E+00
  0.00000000E+00  0.00000000E+00  0.00000000E+00
