Al Fe  C  O  H                          
   1.00000000000000     
    14.3189123190275875    0.0000000000000000    0.0000000000000000
     7.1594561595137938   12.4005418228398376    0.0000000000000000
   0.0000000000   0.0000000000   31.9283361084
   Al   Fe   C    O    H 
   123     2     1     1     1
Selective dynamics
Direct
0.9709328896209684   0.1682146331710470   0.3132014135   F   F   F
0.1709328896209712   0.1682146331710470   0.3132014135   F   F   F
0.3709328896209740   0.1682146331710470   0.3132014135   F   F   F
0.5709328896209698   0.1682146331710470   0.3132014135   F   F   F
0.7709328896209726   0.1682146331710470   0.3132014135   F   F   F
0.9709328896209684   0.3682146331710499   0.3132014135   F   F   F
0.1709328896209712   0.3682146331710499   0.3132014135   F   F   F
0.3709328896209740   0.3682146331710499   0.3132014135   F   F   F
0.5709328896209698   0.3682146331710499   0.3132014135   F   F   F
0.7709328896209726   0.3682146331710499   0.3132014135   F   F   F
0.9709328896209684   0.5682146331710456   0.3132014135   F   F   F
0.1709328896209712   0.5682146331710456   0.3132014135   F   F   F
0.3709328896209740   0.5682146331710456   0.3132014135   F   F   F
0.5709328896209698   0.5682146331710456   0.3132014135   F   F   F
0.7709328896209726   0.5682146331710456   0.3132014135   F   F   F
0.9709328896209684   0.7682146331710484   0.3132014135   F   F   F
0.1709328896209712   0.7682146331710484   0.3132014135   F   F   F
0.3709328896209740   0.7682146331710484   0.3132014135   F   F   F
0.5709328896209698   0.7682146331710484   0.3132014135   F   F   F
0.7709328896209726   0.7682146331710484   0.3132014135   F   F   F
0.9709328896209684   0.9682146331710513   0.3132014135   F   F   F
0.1709328896209712   0.9682146331710513   0.3132014135   F   F   F
0.3709328896209740   0.9682146331710513   0.3132014135   F   F   F
0.5709328896209698   0.9682146331710513   0.3132014135   F   F   F
0.7709328896209726   0.9682146331710513   0.3132014135   F   F   F
0.0375995562876383   0.0348812998377142   0.3864363163   F   F   F
0.2375995562876412   0.0348812998377142   0.3864363163   F   F   F
0.4375995562876369   0.0348812998377142   0.3864363163   F   F   F
0.6375995562876398   0.0348812998377142   0.3864363163   F   F   F
0.8375995562876355   0.0348812998377142   0.3864363163   F   F   F
0.0375995562876383   0.2348812998377170   0.3864363163   F   F   F
0.2375995562876412   0.2348812998377170   0.3864363163   F   F   F
0.4375995562876369   0.2348812998377170   0.3864363163   F   F   F
0.6375995562876398   0.2348812998377170   0.3864363163   F   F   F
0.8375995562876355   0.2348812998377170   0.3864363163   F   F   F
0.0375995562876383   0.4348812998377127   0.3864363163   F   F   F
0.2375995562876412   0.4348812998377127   0.3864363163   F   F   F
0.4375995562876369   0.4348812998377127   0.3864363163   F   F   F
0.6375995562876398   0.4348812998377127   0.3864363163   F   F   F
0.8375995562876355   0.4348812998377127   0.3864363163   F   F   F
0.0375995562876383   0.6348812998377156   0.3864363163   F   F   F
0.2375995562876412   0.6348812998377156   0.3864363163   F   F   F
0.4375995562876369   0.6348812998377156   0.3864363163   F   F   F
0.6375995562876398   0.6348812998377156   0.3864363163   F   F   F
0.8375995562876355   0.6348812998377156   0.3864363163   F   F   F
0.0375995562876383   0.8348812998377113   0.3864363163   F   F   F
0.2375995562876412   0.8348812998377113   0.3864363163   F   F   F
0.4375995562876369   0.8348812998377113   0.3864363163   F   F   F
0.6375995562876398   0.8348812998377113   0.3864363163   F   F   F
0.8375995562876355   0.8348812998377113   0.3864363163   F   F   F
0.1042662229543083   0.1015479665043841   0.4596712190   F   F   F
0.3042662229543041   0.1015479665043841   0.4596712190   F   F   F
0.5042662229543069   0.1015479665043841   0.4596712190   F   F   F
0.7042662229543026   0.1015479665043841   0.4596712190   F   F   F
0.9042662229543055   0.1015479665043841   0.4596712190   F   F   F
0.1042662229543083   0.3015479665043799   0.4596712190   F   F   F
0.3042662229543041   0.3015479665043799   0.4596712190   F   F   F
0.5042662229543069   0.3015479665043799   0.4596712190   F   F   F
0.7042662229543026   0.3015479665043799   0.4596712190   F   F   F
0.9042662229543055   0.3015479665043799   0.4596712190   F   F   F
0.1042662229543083   0.5015479665043827   0.4596712190   F   F   F
0.3042662229543041   0.5015479665043827   0.4596712190   F   F   F
0.5042662229543069   0.5015479665043827   0.4596712190   F   F   F
0.7042662229543026   0.5015479665043827   0.4596712190   F   F   F
0.9042662229543055   0.5015479665043827   0.4596712190   F   F   F
0.1042662229543083   0.7015479665043785   0.4596712190   F   F   F
0.3042662229543041   0.7015479665043785   0.4596712190   F   F   F
0.5042662229543069   0.7015479665043785   0.4596712190   F   F   F
0.7042662229543026   0.7015479665043785   0.4596712190   F   F   F
0.9042662229543055   0.7015479665043785   0.4596712190   F   F   F
0.1042662229543083   0.9015479665043813   0.4596712190   F   F   F
0.3042662229543041   0.9015479665043813   0.4596712190   F   F   F
0.5042662229543069   0.9015479665043813   0.4596712190   F   F   F
0.7042662229543026   0.9015479665043813   0.4596712190   F   F   F
0.9042662229543055   0.9015479665043813   0.4596712190   F   F   F
0.9697388076936112   0.1708130200063351   0.5326709661   T   T   T
0.1737210252172730   0.1687575707282356   0.5329464144   T   T   T
0.3735066723480012   0.1674118520724260   0.5314960472   T   T   T
0.5695654085700175   0.1673669261150256   0.5313955553   T   T   T
0.7681785251271107   0.1684017794491885   0.5329064952   T   T   T
0.9725945345400278   0.3693546999708262   0.5329964993   T   T   T
0.1727802624049004   0.3690521809616245   0.5312548041   T   T   T
0.3679182202010671   0.3746974951148159   0.5317931023   T   T   T
0.5690346427056313   0.3688890449039855   0.5310931589   T   T   T
0.7686726998598948   0.3693393605410106   0.5329219900   T   T   T
0.9680307486890278   0.5699698559959525   0.5315703886   T   T   T
0.1696272357743244   0.5663287926792594   0.5310173767   T   T   T
0.3749017115646666   0.5662509268271723   0.5308776347   T   T   T
0.5725874875728713   0.5701741247417655   0.5314876637   T   T   T
0.7713735315497778   0.5677920073042838   0.5329207481   T   T   T
0.9713526928718808   0.7666554450806565   0.5333139011   T   T   T
0.1733269952149583   0.7636532658615706   0.5329921371   T   T   T
0.3721085369154931   0.7668190584579878   0.5332633230   T   T   T
0.5713531854943974   0.7690269817715661   0.5332609395   T   T   T
0.7699975275743719   0.7687710030077186   0.5332938157   T   T   T
0.9717679089313261   0.9669625879107099   0.5327920188   T   T   T
0.1710797393274702   0.9671687343305908   0.5327882716   T   T   T
0.3714662470510177   0.9675182786055709   0.5332007577   T   T   T
0.5710350114448896   0.9679475424303643   0.5333338487   T   T   T
0.7710303119843490   0.9673723837164836   0.5331995605   T   T   T
0.0369177356247718   0.0362091042131561   0.6060862321   T   T   T
0.2386522841069499   0.0344739494581634   0.6065088090   T   T   T
0.4353673537823941   0.0424658347766612   0.6064845736   T   T   T
0.6321836785553107   0.0429539461619928   0.6064202270   T   T   T
0.8367723708360769   0.0345769615949567   0.6065215792   T   T   T
0.0406597674484315   0.2378525762684684   0.6063031400   T   T   T
0.2411399292144877   0.2452438170517531   0.6045383125   T   T   T
0.4256635125517387   0.2600175602447294   0.6027562249   T   T   T
0.6246857420817119   0.2453728584069487   0.6044489737   T   T   T
0.8324361616431772   0.2375809702447851   0.6062500562   T   T   T
0.0499255585242765   0.4355167001939749   0.6046148538   T   T   T
0.6256626522363702   0.4355348334226489   0.6044724964   T   T   T
0.8377756184517209   0.4347850198775292   0.6068125091   T   T   T
0.0500164071068453   0.6258188885879887   0.6047295397   T   T   T
0.2507999958080920   0.6101452876184490   0.6025108383   T   T   T
0.4355006654253439   0.6257284165413135   0.6046910669   T   T   T
0.6356342865635750   0.6317261420633016   0.6065924024   T   T   T
0.8436899262038979   0.6313500338129792   0.6066559920   T   T   T
0.0418786618996533   0.8290043942258910   0.6065869770   T   T   T
0.2394903973467825   0.8284519395553644   0.6066241227   T   T   T
0.4373806904911295   0.8342830936579849   0.6075910743   T   T   T
0.6379206820101211   0.8343243769308666   0.6082962298   T   T   T
0.8383331659318205   0.8343341063761580   0.6076526465   T   T   T
0.2394001253937275   0.4372296604091375   0.5941609932   T   T   T
0.4345943302035843   0.4369674149910269   0.5936445824   T   T   T
0.3375731863600530   0.4374207542580542   0.6331759182   T   T   T
0.3418750604416825   0.4350440977329562   0.6758587499   T   T   T
0.2790587287547970   0.4335571311161390   0.6867985865   T   T   T
 
  0.00000000E+00  0.00000000E+00  0.00000000E+00
  0.00000000E+00  0.00000000E+00  0.00000000E+00
  0.00000000E+00  0.00000000E+00  0.00000000E+00
  0.00000000E+00  0.00000000E+00  0.00000000E+00
  0.00000000E+00  0.00000000E+00  0.00000000E+00
  0.00000000E+00  0.00000000E+00  0.00000000E+00
  0.00000000E+00  0.00000000E+00  0.00000000E+00
  0.00000000E+00  0.00000000E+00  0.00000000E+00
  0.00000000E+00  0.00000000E+00  0.00000000E+00
  0.00000000E+00  0.00000000E+00  0.00000000E+00
  0.00000000E+00  0.00000000E+00  0.00000000E+00
  0.00000000E+00  0.00000000E+00  0.00000000E+00
  0.00000000E+00  0.00000000E+00  0.00000000E+00
  0.00000000E+00  0.00000000E+00  0.00000000E+00
  0.00000000E+00  0.00000000E+00  0.00000000E+00
  0.00000000E+00  0.00000000E+00  0.00000000E+00
  0.00000000E+00  0.00000000E+00  0.00000000E+00
  0.00000000E+00  0.00000000E+00  0.00000000E+00
  0.00000000E+00  0.00000000E+00  0.00000000E+00
  0.00000000E+00  0.00000000E+00  0.00000000E+00
  0.00000000E+00  0.00000000E+00  0.00000000E+00
  0.00000000E+00  0.00000000E+00  0.00000000E+00
  0.00000000E+00  0.00000000E+00  0.00000000E+00
  0.00000000E+00  0.00000000E+00  0.00000000E+00
  0.00000000E+00  0.00000000E+00  0.00000000E+00
  0.00000000E+00  0.00000000E+00  0.00000000E+00
  0.00000000E+00  0.00000000E+00  0.00000000E+00
  0.00000000E+00  0.00000000E+00  0.00000000E+00
  0.00000000E+00  0.00000000E+00  0.00000000E+00
  0.00000000E+00  0.00000000E+00  0.00000000E+00
  0.00000000E+00  0.00000000E+00  0.00000000E+00
  0.00000000E+00  0.00000000E+00  0.00000000E+00
  0.00000000E+00  0.00000000E+00  0.00000000E+00
  0.00000000E+00  0.00000000E+00  0.00000000E+00
  0.00000000E+00  0.00000000E+00  0.00000000E+00
  0.00000000E+00  0.00000000E+00  0.00000000E+00
  0.00000000E+00  0.00000000E+00  0.00000000E+00
  0.00000000E+00  0.00000000E+00  0.00000000E+00
  0.00000000E+00  0.00000000E+00  0.00000000E+00
  0.00000000E+00  0.00000000E+00  0.00000000E+00
  0.00000000E+00  0.00000000E+00  0.00000000E+00
  0.00000000E+00  0.00000000E+00  0.00000000E+00
  0.00000000E+00  0.00000000E+00  0.00000000E+00
  0.00000000E+00  0.00000000E+00  0.00000000E+00
  0.00000000E+00  0.00000000E+00  0.00000000E+00
  0.00000000E+00  0.00000000E+00  0.00000000E+00
  0.00000000E+00  0.00000000E+00  0.00000000E+00
  0.00000000E+00  0.00000000E+00  0.00000000E+00
  0.00000000E+00  0.00000000E+00  0.00000000E+00
  0.00000000E+00  0.00000000E+00  0.00000000E+00
  0.00000000E+00  0.00000000E+00  0.00000000E+00
  0.00000000E+00  0.00000000E+00  0.00000000E+00
  0.00000000E+00  0.00000000E+00  0.00000000E+00
  0.00000000E+00  0.00000000E+00  0.00000000E+00
  0.00000000E+00  0.00000000E+00  0.00000000E+00
  0.00000000E+00  0.00000000E+00  0.00000000E+00
  0.00000000E+00  0.00000000E+00  0.00000000E+00
  0.00000000E+00  0.00000000E+00  0.00000000E+00
  0.00000000E+00  0.00000000E+00  0.00000000E+00
  0.00000000E+00  0.00000000E+00  0.00000000E+00
  0.00000000E+00  0.00000000E+00  0.00000000E+00
  0.00000000E+00  0.00000000E+00  0.00000000E+00
  0.00000000E+00  0.00000000E+00  0.00000000E+00
  0.00000000E+00  0.00000000E+00  0.00000000E+00
  0.00000000E+00  0.00000000E+00  0.00000000E+00
  0.00000000E+00  0.00000000E+00  0.00000000E+00
  0.00000000E+00  0.00000000E+00  0.00000000E+00
  0.00000000E+00  0.00000000E+00  0.00000000E+00
  0.00000000E+00  0.00000000E+00  0.00000000E+00
  0.00000000E+00  0.00000000E+00  0.00000000E+00
  0.00000000E+00  0.00000000E+00  0.00000000E+00
  0.00000000E+00  0.00000000E+00  0.00000000E+00
  0.00000000E+00  0.00000000E+00  0.00000000E+00
  0.00000000E+00  0.00000000E+00  0.00000000E+00
  0.00000000E+00  0.00000000E+00  0.00000000E+00
  0.00000000E+00  0.00000000E+00  0.00000000E+00
  0.00000000E+00  0.00000000E+00  0.00000000E+00
  0.00000000E+00  0.00000000E+00  0.00000000E+00
  0.00000000E+00  0.00000000E+00  0.00000000E+00
  0.00000000E+00  0.00000000E+00  0.00000000E+00
  0.00000000E+00  0.00000000E+00  0.00000000E+00
  0.00000000E+00  0.00000000E+00  0.00000000E+00
  0.00000000E+00  0.00000000E+00  0.00000000E+00
  0.00000000E+00  0.00000000E+00  0.00000000E+00
  0.00000000E+00  0.00000000E+00  0.00000000E+00
  0.00000000E+00  0.00000000E+00  0.00000000E+00
  0.00000000E+00  0.00000000E+00  0.00000000E+00
  0.00000000E+00  0.00000000E+00  0.00000000E+00
  0.00000000E+00  0.00000000E+00  0.00000000E+00
  0.00000000E+00  0.00000000E+00  0.00000000E+00
  0.00000000E+00  0.00000000E+00  0.00000000E+00
  0.00000000E+00  0.00000000E+00  0.00000000E+00
  0.00000000E+00  0.00000000E+00  0.00000000E+00
  0.00000000E+00  0.00000000E+00  0.00000000E+00
  0.00000000E+00  0.00000000E+00  0.00000000E+00
  0.00000000E+00  0.00000000E+00  0.00000000E+00
  0.00000000E+00  0.00000000E+00  0.00000000E+00
  0.00000000E+00  0.00000000E+00  0.00000000E+00
  0.00000000E+00  0.00000000E+00  0.00000000E+00
  0.00000000E+00  0.00000000E+00  0.00000000E+00
  0.00000000E+00  0.00000000E+00  0.00000000E+00
  0.00000000E+00  0.00000000E+00  0.00000000E+00
  0.00000000E+00  0.00000000E+00  0.00000000E+00
  0.00000000E+00  0.00000000E+00  0.00000000E+00
  0.00000000E+00  0.00000000E+00  0.00000000E+00
  0.00000000E+00  0.00000000E+00  0.00000000E+00
  0.00000000E+00  0.00000000E+00  0.00000000E+00
  0.00000000E+00  0.00000000E+00  0.00000000E+00
  0.00000000E+00  0.00000000E+00  0.00000000E+00
  0.00000000E+00  0.00000000E+00  0.00000000E+00
  0.00000000E+00  0.00000000E+00  0.00000000E+00
  0.00000000E+00  0.00000000E+00  0.00000000E+00
  0.00000000E+00  0.00000000E+00  0.00000000E+00
  0.00000000E+00  0.00000000E+00  0.00000000E+00
  0.00000000E+00  0.00000000E+00  0.00000000E+00
  0.00000000E+00  0.00000000E+00  0.00000000E+00
  0.00000000E+00  0.00000000E+00  0.00000000E+00
  0.00000000E+00  0.00000000E+00  0.00000000E+00
  0.00000000E+00  0.00000000E+00  0.00000000E+00
  0.00000000E+00  0.00000000E+00  0.00000000E+00
  0.00000000E+00  0.00000000E+00  0.00000000E+00
  0.00000000E+00  0.00000000E+00  0.00000000E+00
  0.00000000E+00  0.00000000E+00  0.00000000E+00
  0.00000000E+00  0.00000000E+00  0.00000000E+00
  0.00000000E+00  0.00000000E+00  0.00000000E+00
  0.00000000E+00  0.00000000E+00  0.00000000E+00
  0.00000000E+00  0.00000000E+00  0.00000000E+00
  0.00000000E+00  0.00000000E+00  0.00000000E+00
