Al Fe Al  C  H  O  C                    
   1.00000000000000     
    14.3189123190275875    0.0000000000000000    0.0000000000000000
     7.1594561595137938   12.4005418228398376    0.0000000000000000
   0.0000000000   0.0000000000   33.6556430928
   Al   Fe   Al   C    H    O    C 
   112     1    12     2     5     1     1
Selective dynamics
Direct
0.9333333333333300   0.1333333333333329   0.2971269921   F   F   F
0.1333333333333329   0.1333333333333329   0.2971269921   F   F   F
0.3333333333333357   0.1333333333333329   0.2971269921   F   F   F
0.5333333333333314   0.1333333333333329   0.2971269921   F   F   F
0.7333333333333343   0.1333333333333329   0.2971269921   F   F   F
0.9333333333333300   0.3333333333333357   0.2971269921   F   F   F
0.1333333333333329   0.3333333333333357   0.2971269921   F   F   F
0.3333333333333357   0.3333333333333357   0.2971269921   F   F   F
0.5333333333333314   0.3333333333333357   0.2971269921   F   F   F
0.7333333333333343   0.3333333333333357   0.2971269921   F   F   F
0.9333333333333300   0.5333333333333314   0.2971269921   F   F   F
0.1333333333333329   0.5333333333333314   0.2971269921   F   F   F
0.3333333333333357   0.5333333333333314   0.2971269921   F   F   F
0.5333333333333314   0.5333333333333314   0.2971269921   F   F   F
0.7333333333333343   0.5333333333333314   0.2971269921   F   F   F
0.9333333333333300   0.7333333333333343   0.2971269921   F   F   F
0.1333333333333329   0.7333333333333343   0.2971269921   F   F   F
0.3333333333333357   0.7333333333333343   0.2971269921   F   F   F
0.5333333333333314   0.7333333333333343   0.2971269921   F   F   F
0.7333333333333343   0.7333333333333343   0.2971269921   F   F   F
0.9333333333333300   0.9333333333333371   0.2971269921   F   F   F
0.1333333333333329   0.9333333333333371   0.2971269921   F   F   F
0.3333333333333357   0.9333333333333371   0.2971269921   F   F   F
0.5333333333333314   0.9333333333333371   0.2971269921   F   F   F
0.7333333333333343   0.9333333333333371   0.2971269921   F   F   F
0.0000000000000000   0.0000000000000000   0.3666032635   F   F   F
0.2000000000000028   0.0000000000000000   0.3666032635   F   F   F
0.3999999999999986   0.0000000000000000   0.3666032635   F   F   F
0.6000000000000014   0.0000000000000000   0.3666032635   F   F   F
0.7999999999999972   0.0000000000000000   0.3666032635   F   F   F
0.0000000000000000   0.2000000000000028   0.3666032635   F   F   F
0.2000000000000028   0.2000000000000028   0.3666032635   F   F   F
0.3999999999999986   0.2000000000000028   0.3666032635   F   F   F
0.6000000000000014   0.2000000000000028   0.3666032635   F   F   F
0.7999999999999972   0.2000000000000028   0.3666032635   F   F   F
0.0000000000000000   0.3999999999999986   0.3666032635   F   F   F
0.2000000000000028   0.3999999999999986   0.3666032635   F   F   F
0.3999999999999986   0.3999999999999986   0.3666032635   F   F   F
0.6000000000000014   0.3999999999999986   0.3666032635   F   F   F
0.7999999999999972   0.3999999999999986   0.3666032635   F   F   F
0.0000000000000000   0.6000000000000014   0.3666032635   F   F   F
0.2000000000000028   0.6000000000000014   0.3666032635   F   F   F
0.3999999999999986   0.6000000000000014   0.3666032635   F   F   F
0.6000000000000014   0.6000000000000014   0.3666032635   F   F   F
0.7999999999999972   0.6000000000000014   0.3666032635   F   F   F
0.0000000000000000   0.7999999999999972   0.3666032635   F   F   F
0.2000000000000028   0.7999999999999972   0.3666032635   F   F   F
0.3999999999999986   0.7999999999999972   0.3666032635   F   F   F
0.6000000000000014   0.7999999999999972   0.3666032635   F   F   F
0.7999999999999972   0.7999999999999972   0.3666032635   F   F   F
0.0666666666666700   0.0666666666666700   0.4360795348   F   F   F
0.2666666666666657   0.0666666666666700   0.4360795348   F   F   F
0.4666666666666686   0.0666666666666700   0.4360795348   F   F   F
0.6666666666666643   0.0666666666666700   0.4360795348   F   F   F
0.8666666666666671   0.0666666666666700   0.4360795348   F   F   F
0.0666666666666700   0.2666666666666657   0.4360795348   F   F   F
0.2666666666666657   0.2666666666666657   0.4360795348   F   F   F
0.4666666666666686   0.2666666666666657   0.4360795348   F   F   F
0.6666666666666643   0.2666666666666657   0.4360795348   F   F   F
0.8666666666666671   0.2666666666666657   0.4360795348   F   F   F
0.0666666666666700   0.4666666666666686   0.4360795348   F   F   F
0.2666666666666657   0.4666666666666686   0.4360795348   F   F   F
0.4666666666666686   0.4666666666666686   0.4360795348   F   F   F
0.6666666666666643   0.4666666666666686   0.4360795348   F   F   F
0.8666666666666671   0.4666666666666686   0.4360795348   F   F   F
0.0666666666666700   0.6666666666666643   0.4360795348   F   F   F
0.2666666666666657   0.6666666666666643   0.4360795348   F   F   F
0.4666666666666686   0.6666666666666643   0.4360795348   F   F   F
0.6666666666666643   0.6666666666666643   0.4360795348   F   F   F
0.8666666666666671   0.6666666666666643   0.4360795348   F   F   F
0.0666666666666700   0.8666666666666671   0.4360795348   F   F   F
0.2666666666666657   0.8666666666666671   0.4360795348   F   F   F
0.4666666666666686   0.8666666666666671   0.4360795348   F   F   F
0.6666666666666643   0.8666666666666671   0.4360795348   F   F   F
0.8666666666666671   0.8666666666666671   0.4360795348   F   F   F
0.9312793396488425   0.1347531392311239   0.5054846293   T   T   T
0.1331373299102460   0.1346509796758971   0.5054889753   T   T   T
0.3336021951731081   0.1350475360411408   0.5053901540   T   T   T
0.5343476926076191   0.1308486678861857   0.5036012058   T   T   T
0.7309557595142435   0.1353624992095459   0.5051622421   T   T   T
0.9325936328354787   0.3334158163553033   0.5053831264   T   T   T
0.1344827330669353   0.3347294602668493   0.5053189730   T   T   T
0.3361503895690144   0.3344399451614378   0.5051123559   T   T   T
0.5276235139691635   0.3374257127392756   0.5053011175   T   T   T
0.7307466178034844   0.3348791531214402   0.5054269600   T   T   T
0.9326791866070538   0.5332373278199436   0.5055546155   T   T   T
0.1314182559268078   0.5353033180793649   0.5037411669   T   T   T
0.3290309450976192   0.5312504503614406   0.5088213277   T   T   T
0.5329426258513287   0.5350855513319738   0.5038182257   T   T   T
0.7333081245694301   0.5337605020003434   0.5058384918   T   T   T
0.9321473750612612   0.7343372218865113   0.5051192363   T   T   T
0.1353703329019306   0.7295041052857080   0.5056142824   T   T   T
0.3339114572929682   0.7311981408687365   0.5054646407   T   T   T
0.5326789016437007   0.7345282405748756   0.5058133989   T   T   T
0.7329011453887312   0.7339122625623844   0.5062965757   T   T   T
0.9331955393541188   0.9341450848031375   0.5049055340   T   T   T
0.1332459176669648   0.9322319330658755   0.5053077743   T   T   T
0.3323342987642019   0.9338963957182790   0.5054268561   T   T   T
0.5326162829038901   0.9332485613299860   0.5057758853   T   T   T
0.7335517394940450   0.9333947692326340   0.5056588183   T   T   T
-0.0009741962586894   0.0009839833548284   0.5748756546   T   T   T
0.1993557675915492   0.0001344223912747   0.5751506319   T   T   T
0.3990552594147627   0.0022059666899234   0.5753107247   T   T   T
0.5969871633966818   0.0058232033941565   0.5751141543   T   T   T
0.7994943363337564   0.0005938919454435   0.5750413946   T   T   T
-0.0008812367160165   0.2006727025646717   0.5751048617   T   T   T
0.2012703017752797   0.2037281791902368   0.5752776178   T   T   T
0.3999347400219246   0.2072550431242398   0.5729789121   T   T   T
0.5928719626535635   0.2067105448962740   0.5722887397   T   T   T
0.7947188525550117   0.2028284109110645   0.5753265662   T   T   T
0.0002364880301626   0.4004399885180522   0.5750748962   T   T   T
0.2086493285059345   0.4022094950894564   0.5718891579   T   T   T
0.4032003547170395   0.3953181268325435   0.5703009047   T   T   T
0.5921896693836188   0.4008376714968279   0.5730617301   T   T   T
0.7981411861322050   0.4014020680308526   0.5752573265   T   T   T
0.0054797168283804   0.5982109828922825   0.5734884116   T   T   T
0.2194692696112040   0.5838141116236159   0.5939042837   T   T   T
0.4019735161305690   0.5940823545048076   0.5733149128   T   T   T
0.5978900512578960   0.5985645735774603   0.5751668479   T   T   T
0.8011458082932570   0.6009150729712159   0.5765260082   T   T   T
0.0013986195088327   0.7990618347527871   0.5731597098   T   T   T
0.2027577551957005   0.7952061140846743   0.5746145650   T   T   T
0.3999927728030480   0.8007331523542441   0.5753432017   T   T   T
0.5995934921230122   0.8015330658857198   0.5766681549   T   T   T
0.8002225928085629   0.8011707251921449   0.5763447414   T   T   T
0.0908304052148322   0.6913391808243903   0.6703264582   T   T   T
0.1962980880394977   0.5988939858208927   0.6538332154   T   T   T
0.2649832698452756   0.6033475240038330   0.6660474124   T   T   T
0.0891256025457957   0.6901959590628841   0.7028730079   T   T   T
0.2062417818727941   0.5215546205979924   0.6640514646   T   T   T
0.0207602478012434   0.6870420075666162   0.6598531794   T   T   T
0.0786535660485055   0.7703004153649873   0.6614967295   T   T   T
0.4321886972935166   0.3651833373105587   0.6569526257   T   T   T
0.4197307381989716   0.3782411508087790   0.6224942154   T   T   T
 
  0.00000000E+00  0.00000000E+00  0.00000000E+00
  0.00000000E+00  0.00000000E+00  0.00000000E+00
  0.00000000E+00  0.00000000E+00  0.00000000E+00
  0.00000000E+00  0.00000000E+00  0.00000000E+00
  0.00000000E+00  0.00000000E+00  0.00000000E+00
  0.00000000E+00  0.00000000E+00  0.00000000E+00
  0.00000000E+00  0.00000000E+00  0.00000000E+00
  0.00000000E+00  0.00000000E+00  0.00000000E+00
  0.00000000E+00  0.00000000E+00  0.00000000E+00
  0.00000000E+00  0.00000000E+00  0.00000000E+00
  0.00000000E+00  0.00000000E+00  0.00000000E+00
  0.00000000E+00  0.00000000E+00  0.00000000E+00
  0.00000000E+00  0.00000000E+00  0.00000000E+00
  0.00000000E+00  0.00000000E+00  0.00000000E+00
  0.00000000E+00  0.00000000E+00  0.00000000E+00
  0.00000000E+00  0.00000000E+00  0.00000000E+00
  0.00000000E+00  0.00000000E+00  0.00000000E+00
  0.00000000E+00  0.00000000E+00  0.00000000E+00
  0.00000000E+00  0.00000000E+00  0.00000000E+00
  0.00000000E+00  0.00000000E+00  0.00000000E+00
  0.00000000E+00  0.00000000E+00  0.00000000E+00
  0.00000000E+00  0.00000000E+00  0.00000000E+00
  0.00000000E+00  0.00000000E+00  0.00000000E+00
  0.00000000E+00  0.00000000E+00  0.00000000E+00
  0.00000000E+00  0.00000000E+00  0.00000000E+00
  0.00000000E+00  0.00000000E+00  0.00000000E+00
  0.00000000E+00  0.00000000E+00  0.00000000E+00
  0.00000000E+00  0.00000000E+00  0.00000000E+00
  0.00000000E+00  0.00000000E+00  0.00000000E+00
  0.00000000E+00  0.00000000E+00  0.00000000E+00
  0.00000000E+00  0.00000000E+00  0.00000000E+00
  0.00000000E+00  0.00000000E+00  0.00000000E+00
  0.00000000E+00  0.00000000E+00  0.00000000E+00
  0.00000000E+00  0.00000000E+00  0.00000000E+00
  0.00000000E+00  0.00000000E+00  0.00000000E+00
  0.00000000E+00  0.00000000E+00  0.00000000E+00
  0.00000000E+00  0.00000000E+00  0.00000000E+00
  0.00000000E+00  0.00000000E+00  0.00000000E+00
  0.00000000E+00  0.00000000E+00  0.00000000E+00
  0.00000000E+00  0.00000000E+00  0.00000000E+00
  0.00000000E+00  0.00000000E+00  0.00000000E+00
  0.00000000E+00  0.00000000E+00  0.00000000E+00
  0.00000000E+00  0.00000000E+00  0.00000000E+00
  0.00000000E+00  0.00000000E+00  0.00000000E+00
  0.00000000E+00  0.00000000E+00  0.00000000E+00
  0.00000000E+00  0.00000000E+00  0.00000000E+00
  0.00000000E+00  0.00000000E+00  0.00000000E+00
  0.00000000E+00  0.00000000E+00  0.00000000E+00
  0.00000000E+00  0.00000000E+00  0.00000000E+00
  0.00000000E+00  0.00000000E+00  0.00000000E+00
  0.00000000E+00  0.00000000E+00  0.00000000E+00
  0.00000000E+00  0.00000000E+00  0.00000000E+00
  0.00000000E+00  0.00000000E+00  0.00000000E+00
  0.00000000E+00  0.00000000E+00  0.00000000E+00
  0.00000000E+00  0.00000000E+00  0.00000000E+00
  0.00000000E+00  0.00000000E+00  0.00000000E+00
  0.00000000E+00  0.00000000E+00  0.00000000E+00
  0.00000000E+00  0.00000000E+00  0.00000000E+00
  0.00000000E+00  0.00000000E+00  0.00000000E+00
  0.00000000E+00  0.00000000E+00  0.00000000E+00
  0.00000000E+00  0.00000000E+00  0.00000000E+00
  0.00000000E+00  0.00000000E+00  0.00000000E+00
  0.00000000E+00  0.00000000E+00  0.00000000E+00
  0.00000000E+00  0.00000000E+00  0.00000000E+00
  0.00000000E+00  0.00000000E+00  0.00000000E+00
  0.00000000E+00  0.00000000E+00  0.00000000E+00
  0.00000000E+00  0.00000000E+00  0.00000000E+00
  0.00000000E+00  0.00000000E+00  0.00000000E+00
  0.00000000E+00  0.00000000E+00  0.00000000E+00
  0.00000000E+00  0.00000000E+00  0.00000000E+00
  0.00000000E+00  0.00000000E+00  0.00000000E+00
  0.00000000E+00  0.00000000E+00  0.00000000E+00
  0.00000000E+00  0.00000000E+00  0.00000000E+00
  0.00000000E+00  0.00000000E+00  0.00000000E+00
  0.00000000E+00  0.00000000E+00  0.00000000E+00
  0.00000000E+00  0.00000000E+00  0.00000000E+00
  0.00000000E+00  0.00000000E+00  0.00000000E+00
  0.00000000E+00  0.00000000E+00  0.00000000E+00
  0.00000000E+00  0.00000000E+00  0.00000000E+00
  0.00000000E+00  0.00000000E+00  0.00000000E+00
  0.00000000E+00  0.00000000E+00  0.00000000E+00
  0.00000000E+00  0.00000000E+00  0.00000000E+00
  0.00000000E+00  0.00000000E+00  0.00000000E+00
  0.00000000E+00  0.00000000E+00  0.00000000E+00
  0.00000000E+00  0.00000000E+00  0.00000000E+00
  0.00000000E+00  0.00000000E+00  0.00000000E+00
  0.00000000E+00  0.00000000E+00  0.00000000E+00
  0.00000000E+00  0.00000000E+00  0.00000000E+00
  0.00000000E+00  0.00000000E+00  0.00000000E+00
  0.00000000E+00  0.00000000E+00  0.00000000E+00
  0.00000000E+00  0.00000000E+00  0.00000000E+00
  0.00000000E+00  0.00000000E+00  0.00000000E+00
  0.00000000E+00  0.00000000E+00  0.00000000E+00
  0.00000000E+00  0.00000000E+00  0.00000000E+00
  0.00000000E+00  0.00000000E+00  0.00000000E+00
  0.00000000E+00  0.00000000E+00  0.00000000E+00
  0.00000000E+00  0.00000000E+00  0.00000000E+00
  0.00000000E+00  0.00000000E+00  0.00000000E+00
  0.00000000E+00  0.00000000E+00  0.00000000E+00
  0.00000000E+00  0.00000000E+00  0.00000000E+00
  0.00000000E+00  0.00000000E+00  0.00000000E+00
  0.00000000E+00  0.00000000E+00  0.00000000E+00
  0.00000000E+00  0.00000000E+00  0.00000000E+00
  0.00000000E+00  0.00000000E+00  0.00000000E+00
  0.00000000E+00  0.00000000E+00  0.00000000E+00
  0.00000000E+00  0.00000000E+00  0.00000000E+00
  0.00000000E+00  0.00000000E+00  0.00000000E+00
  0.00000000E+00  0.00000000E+00  0.00000000E+00
  0.00000000E+00  0.00000000E+00  0.00000000E+00
  0.00000000E+00  0.00000000E+00  0.00000000E+00
  0.00000000E+00  0.00000000E+00  0.00000000E+00
  0.00000000E+00  0.00000000E+00  0.00000000E+00
  0.00000000E+00  0.00000000E+00  0.00000000E+00
  0.00000000E+00  0.00000000E+00  0.00000000E+00
  0.00000000E+00  0.00000000E+00  0.00000000E+00
  0.00000000E+00  0.00000000E+00  0.00000000E+00
  0.00000000E+00  0.00000000E+00  0.00000000E+00
  0.00000000E+00  0.00000000E+00  0.00000000E+00
  0.00000000E+00  0.00000000E+00  0.00000000E+00
  0.00000000E+00  0.00000000E+00  0.00000000E+00
  0.00000000E+00  0.00000000E+00  0.00000000E+00
  0.00000000E+00  0.00000000E+00  0.00000000E+00
  0.00000000E+00  0.00000000E+00  0.00000000E+00
  0.00000000E+00  0.00000000E+00  0.00000000E+00
  0.00000000E+00  0.00000000E+00  0.00000000E+00
  0.00000000E+00  0.00000000E+00  0.00000000E+00
  0.00000000E+00  0.00000000E+00  0.00000000E+00
  0.00000000E+00  0.00000000E+00  0.00000000E+00
  0.00000000E+00  0.00000000E+00  0.00000000E+00
  0.00000000E+00  0.00000000E+00  0.00000000E+00
  0.00000000E+00  0.00000000E+00  0.00000000E+00
  0.00000000E+00  0.00000000E+00  0.00000000E+00
  0.00000000E+00  0.00000000E+00  0.00000000E+00
  0.00000000E+00  0.00000000E+00  0.00000000E+00
