Al Fe  O                                
   1.00000000000000     
    14.3189123190275875    0.0000000000000000    0.0000000000000000
     7.1594561595137938   12.4005418228398376    0.0000000000000000
   0.0000000000   0.0000000000   30.1611637232
   Al   Fe   O 
   123     2     1
Selective dynamics
Direct
0.9670951277787125   0.1671479699410341   0.3315521938   F   F   F
0.1670951277787154   0.1671479699410341   0.3315521938   F   F   F
0.3670951277787182   0.1671479699410341   0.3315521938   F   F   F
0.5670951277787140   0.1671479699410341   0.3315521938   F   F   F
0.7670951277787168   0.1671479699410341   0.3315521938   F   F   F
0.9670951277787125   0.3671479699410369   0.3315521938   F   F   F
0.1670951277787154   0.3671479699410369   0.3315521938   F   F   F
0.3670951277787182   0.3671479699410369   0.3315521938   F   F   F
0.5670951277787140   0.3671479699410369   0.3315521938   F   F   F
0.7670951277787168   0.3671479699410369   0.3315521938   F   F   F
0.9670951277787125   0.5671479699410327   0.3315521938   F   F   F
0.1670951277787154   0.5671479699410327   0.3315521938   F   F   F
0.3670951277787182   0.5671479699410327   0.3315521938   F   F   F
0.5670951277787140   0.5671479699410327   0.3315521938   F   F   F
0.7670951277787168   0.5671479699410327   0.3315521938   F   F   F
0.9670951277787125   0.7671479699410355   0.3315521938   F   F   F
0.1670951277787154   0.7671479699410355   0.3315521938   F   F   F
0.3670951277787182   0.7671479699410355   0.3315521938   F   F   F
0.5670951277787140   0.7671479699410355   0.3315521938   F   F   F
0.7670951277787168   0.7671479699410355   0.3315521938   F   F   F
0.9670951277787125   0.9671479699410384   0.3315521938   F   F   F
0.1670951277787154   0.9671479699410384   0.3315521938   F   F   F
0.3670951277787182   0.9671479699410384   0.3315521938   F   F   F
0.5670951277787140   0.9671479699410384   0.3315521938   F   F   F
0.7670951277787168   0.9671479699410384   0.3315521938   F   F   F
0.0337617944453825   0.0338146366077012   0.4090780019   F   F   F
0.2337617944453854   0.0338146366077012   0.4090780019   F   F   F
0.4337617944453811   0.0338146366077012   0.4090780019   F   F   F
0.6337617944453839   0.0338146366077012   0.4090780019   F   F   F
0.8337617944453797   0.0338146366077012   0.4090780019   F   F   F
0.0337617944453825   0.2338146366077041   0.4090780019   F   F   F
0.2337617944453854   0.2338146366077041   0.4090780019   F   F   F
0.4337617944453811   0.2338146366077041   0.4090780019   F   F   F
0.6337617944453839   0.2338146366077041   0.4090780019   F   F   F
0.8337617944453797   0.2338146366077041   0.4090780019   F   F   F
0.0337617944453825   0.4338146366076998   0.4090780019   F   F   F
0.2337617944453854   0.4338146366076998   0.4090780019   F   F   F
0.4337617944453811   0.4338146366076998   0.4090780019   F   F   F
0.6337617944453839   0.4338146366076998   0.4090780019   F   F   F
0.8337617944453797   0.4338146366076998   0.4090780019   F   F   F
0.0337617944453825   0.6338146366077027   0.4090780019   F   F   F
0.2337617944453854   0.6338146366077027   0.4090780019   F   F   F
0.4337617944453811   0.6338146366077027   0.4090780019   F   F   F
0.6337617944453839   0.6338146366077027   0.4090780019   F   F   F
0.8337617944453797   0.6338146366077027   0.4090780019   F   F   F
0.0337617944453825   0.8338146366076984   0.4090780019   F   F   F
0.2337617944453854   0.8338146366076984   0.4090780019   F   F   F
0.4337617944453811   0.8338146366076984   0.4090780019   F   F   F
0.6337617944453839   0.8338146366076984   0.4090780019   F   F   F
0.8337617944453797   0.8338146366076984   0.4090780019   F   F   F
0.1004284611120525   0.1004813032743712   0.4866038100   F   F   F
0.3004284611120482   0.1004813032743712   0.4866038100   F   F   F
0.5004284611120511   0.1004813032743712   0.4866038100   F   F   F
0.7004284611120468   0.1004813032743712   0.4866038100   F   F   F
0.9004284611120497   0.1004813032743712   0.4866038100   F   F   F
0.1004284611120525   0.3004813032743670   0.4866038100   F   F   F
0.3004284611120482   0.3004813032743670   0.4866038100   F   F   F
0.5004284611120511   0.3004813032743670   0.4866038100   F   F   F
0.7004284611120468   0.3004813032743670   0.4866038100   F   F   F
0.9004284611120497   0.3004813032743670   0.4866038100   F   F   F
0.1004284611120525   0.5004813032743698   0.4866038100   F   F   F
0.3004284611120482   0.5004813032743698   0.4866038100   F   F   F
0.5004284611120511   0.5004813032743698   0.4866038100   F   F   F
0.7004284611120468   0.5004813032743698   0.4866038100   F   F   F
0.9004284611120497   0.5004813032743698   0.4866038100   F   F   F
0.1004284611120525   0.7004813032743655   0.4866038100   F   F   F
0.3004284611120482   0.7004813032743655   0.4866038100   F   F   F
0.5004284611120511   0.7004813032743655   0.4866038100   F   F   F
0.7004284611120468   0.7004813032743655   0.4866038100   F   F   F
0.9004284611120497   0.7004813032743655   0.4866038100   F   F   F
0.1004284611120525   0.9004813032743684   0.4866038100   F   F   F
0.3004284611120482   0.9004813032743684   0.4866038100   F   F   F
0.5004284611120511   0.9004813032743684   0.4866038100   F   F   F
0.7004284611120468   0.9004813032743684   0.4866038100   F   F   F
0.9004284611120497   0.9004813032743684   0.4866038100   F   F   F
0.9672034610392882   0.1667084555043643   0.5637222247   T   T   T
0.1684391256768180   0.1668422403522507   0.5638170643   T   T   T
0.3688801759490797   0.1659622050960187   0.5630335132   T   T   T
0.5653789644930698   0.1656265148997361   0.5628161895   T   T   T
0.7657599050999664   0.1665494326713181   0.5639000563   T   T   T
0.9674316510297923   0.3671123148273707   0.5636170728   T   T   T
0.1674792441488457   0.3666867055764252   0.5624859969   T   T   T
0.3636577145200949   0.3701706476954179   0.5633960306   T   T   T
0.5647673204129794   0.3673173071204662   0.5641249629   T   T   T
0.7664880146225806   0.3665426306676511   0.5639012502   T   T   T
0.9642504124964549   0.5677994097393427   0.5623432016   T   T   T
0.1649365015574045   0.5650716893583343   0.5619566147   T   T   T
0.3696536800986289   0.5654767853336954   0.5634702079   T   T   T
0.5685907219510078   0.5680649095201427   0.5638044322   T   T   T
0.7674488327687163   0.5672319853825331   0.5632554240   T   T   T
0.9672670868322475   0.7649941026287538   0.5639814061   T   T   T
0.1692134524451779   0.7616243309498270   0.5646477839   T   T   T
0.3678790794883219   0.7659273791149269   0.5642601680   T   T   T
0.5669470762060583   0.7686290797097004   0.5636278339   T   T   T
0.7664045998656871   0.7682578783798760   0.5636471973   T   T   T
0.9688936930680756   0.9641920085440051   0.5643517680   T   T   T
0.1676662906380531   0.9649654189618544   0.5641749188   T   T   T
0.3671049955807659   0.9665201002133343   0.5641791808   T   T   T
0.5673552305518702   0.9663885295662126   0.5638322986   T   T   T
0.7681587930058752   0.9659311927169338   0.5638926613   T   T   T
0.0349744999108934   0.0308211179234029   0.6418831567   T   T   T
0.2343908006489800   0.0340024359018003   0.6419701946   T   T   T
0.4313192394271795   0.0396765736934514   0.6417383641   T   T   T
0.6293404324308698   0.0381591618307396   0.6414944950   T   T   T
0.8331060808795118   0.0322523189738643   0.6418751853   T   T   T
0.0343988089034331   0.2338502610966742   0.6414492195   T   T   T
0.2341806022102212   0.2410773613970960   0.6400102262   T   T   T
0.4210389651413194   0.2539888548490178   0.6402678142   T   T   T
0.6265739893405581   0.2349354979901953   0.6393715103   T   T   T
0.8323771762713594   0.2322630826524721   0.6422410344   T   T   T
0.0398693383412743   0.4327465861675405   0.6397331125   T   T   T
0.6356265696169233   0.4283019742351197   0.6428960065   T   T   T
0.8342300662592234   0.4332803619177687   0.6420706960   T   T   T
0.0421040249595079   0.6236612004068071   0.6401858952   T   T   T
0.2394593306589061   0.6126961468566100   0.6390899196   T   T   T
0.4282397627267731   0.6326125263553757   0.6432342492   T   T   T
0.6374162292798383   0.6363104888848471   0.6403016698   T   T   T
0.8377847355644188   0.6321566145361386   0.6409327716   T   T   T
0.0372186250468190   0.8264762327749213   0.6421958043   T   T   T
0.2344937569056796   0.8282315924655153   0.6428997433   T   T   T
0.4340927633779432   0.8325985880213379   0.6428940113   T   T   T
0.6328827553005577   0.8368813808204374   0.6425091958   T   T   T
0.8349914343747007   0.8319783082300638   0.6425085601   T   T   T
0.2275430265545333   0.4348630463412998   0.6273624612   T   T   T
0.4285107828233231   0.4311973824284425   0.6295375094   T   T   T
0.5056240556624855   0.5027856334197407   0.6684478062   T   T   T
 
  0.00000000E+00  0.00000000E+00  0.00000000E+00
  0.00000000E+00  0.00000000E+00  0.00000000E+00
  0.00000000E+00  0.00000000E+00  0.00000000E+00
  0.00000000E+00  0.00000000E+00  0.00000000E+00
  0.00000000E+00  0.00000000E+00  0.00000000E+00
  0.00000000E+00  0.00000000E+00  0.00000000E+00
  0.00000000E+00  0.00000000E+00  0.00000000E+00
  0.00000000E+00  0.00000000E+00  0.00000000E+00
  0.00000000E+00  0.00000000E+00  0.00000000E+00
  0.00000000E+00  0.00000000E+00  0.00000000E+00
  0.00000000E+00  0.00000000E+00  0.00000000E+00
  0.00000000E+00  0.00000000E+00  0.00000000E+00
  0.00000000E+00  0.00000000E+00  0.00000000E+00
  0.00000000E+00  0.00000000E+00  0.00000000E+00
  0.00000000E+00  0.00000000E+00  0.00000000E+00
  0.00000000E+00  0.00000000E+00  0.00000000E+00
  0.00000000E+00  0.00000000E+00  0.00000000E+00
  0.00000000E+00  0.00000000E+00  0.00000000E+00
  0.00000000E+00  0.00000000E+00  0.00000000E+00
  0.00000000E+00  0.00000000E+00  0.00000000E+00
  0.00000000E+00  0.00000000E+00  0.00000000E+00
  0.00000000E+00  0.00000000E+00  0.00000000E+00
  0.00000000E+00  0.00000000E+00  0.00000000E+00
  0.00000000E+00  0.00000000E+00  0.00000000E+00
  0.00000000E+00  0.00000000E+00  0.00000000E+00
  0.00000000E+00  0.00000000E+00  0.00000000E+00
  0.00000000E+00  0.00000000E+00  0.00000000E+00
  0.00000000E+00  0.00000000E+00  0.00000000E+00
  0.00000000E+00  0.00000000E+00  0.00000000E+00
  0.00000000E+00  0.00000000E+00  0.00000000E+00
  0.00000000E+00  0.00000000E+00  0.00000000E+00
  0.00000000E+00  0.00000000E+00  0.00000000E+00
  0.00000000E+00  0.00000000E+00  0.00000000E+00
  0.00000000E+00  0.00000000E+00  0.00000000E+00
  0.00000000E+00  0.00000000E+00  0.00000000E+00
  0.00000000E+00  0.00000000E+00  0.00000000E+00
  0.00000000E+00  0.00000000E+00  0.00000000E+00
  0.00000000E+00  0.00000000E+00  0.00000000E+00
  0.00000000E+00  0.00000000E+00  0.00000000E+00
  0.00000000E+00  0.00000000E+00  0.00000000E+00
  0.00000000E+00  0.00000000E+00  0.00000000E+00
  0.00000000E+00  0.00000000E+00  0.00000000E+00
  0.00000000E+00  0.00000000E+00  0.00000000E+00
  0.00000000E+00  0.00000000E+00  0.00000000E+00
  0.00000000E+00  0.00000000E+00  0.00000000E+00
  0.00000000E+00  0.00000000E+00  0.00000000E+00
  0.00000000E+00  0.00000000E+00  0.00000000E+00
  0.00000000E+00  0.00000000E+00  0.00000000E+00
  0.00000000E+00  0.00000000E+00  0.00000000E+00
  0.00000000E+00  0.00000000E+00  0.00000000E+00
  0.00000000E+00  0.00000000E+00  0.00000000E+00
  0.00000000E+00  0.00000000E+00  0.00000000E+00
  0.00000000E+00  0.00000000E+00  0.00000000E+00
  0.00000000E+00  0.00000000E+00  0.00000000E+00
  0.00000000E+00  0.00000000E+00  0.00000000E+00
  0.00000000E+00  0.00000000E+00  0.00000000E+00
  0.00000000E+00  0.00000000E+00  0.00000000E+00
  0.00000000E+00  0.00000000E+00  0.00000000E+00
  0.00000000E+00  0.00000000E+00  0.00000000E+00
  0.00000000E+00  0.00000000E+00  0.00000000E+00
  0.00000000E+00  0.00000000E+00  0.00000000E+00
  0.00000000E+00  0.00000000E+00  0.00000000E+00
  0.00000000E+00  0.00000000E+00  0.00000000E+00
  0.00000000E+00  0.00000000E+00  0.00000000E+00
  0.00000000E+00  0.00000000E+00  0.00000000E+00
  0.00000000E+00  0.00000000E+00  0.00000000E+00
  0.00000000E+00  0.00000000E+00  0.00000000E+00
  0.00000000E+00  0.00000000E+00  0.00000000E+00
  0.00000000E+00  0.00000000E+00  0.00000000E+00
  0.00000000E+00  0.00000000E+00  0.00000000E+00
  0.00000000E+00  0.00000000E+00  0.00000000E+00
  0.00000000E+00  0.00000000E+00  0.00000000E+00
  0.00000000E+00  0.00000000E+00  0.00000000E+00
  0.00000000E+00  0.00000000E+00  0.00000000E+00
  0.00000000E+00  0.00000000E+00  0.00000000E+00
  0.00000000E+00  0.00000000E+00  0.00000000E+00
  0.00000000E+00  0.00000000E+00  0.00000000E+00
  0.00000000E+00  0.00000000E+00  0.00000000E+00
  0.00000000E+00  0.00000000E+00  0.00000000E+00
  0.00000000E+00  0.00000000E+00  0.00000000E+00
  0.00000000E+00  0.00000000E+00  0.00000000E+00
  0.00000000E+00  0.00000000E+00  0.00000000E+00
  0.00000000E+00  0.00000000E+00  0.00000000E+00
  0.00000000E+00  0.00000000E+00  0.00000000E+00
  0.00000000E+00  0.00000000E+00  0.00000000E+00
  0.00000000E+00  0.00000000E+00  0.00000000E+00
  0.00000000E+00  0.00000000E+00  0.00000000E+00
  0.00000000E+00  0.00000000E+00  0.00000000E+00
  0.00000000E+00  0.00000000E+00  0.00000000E+00
  0.00000000E+00  0.00000000E+00  0.00000000E+00
  0.00000000E+00  0.00000000E+00  0.00000000E+00
  0.00000000E+00  0.00000000E+00  0.00000000E+00
  0.00000000E+00  0.00000000E+00  0.00000000E+00
  0.00000000E+00  0.00000000E+00  0.00000000E+00
  0.00000000E+00  0.00000000E+00  0.00000000E+00
  0.00000000E+00  0.00000000E+00  0.00000000E+00
  0.00000000E+00  0.00000000E+00  0.00000000E+00
  0.00000000E+00  0.00000000E+00  0.00000000E+00
  0.00000000E+00  0.00000000E+00  0.00000000E+00
  0.00000000E+00  0.00000000E+00  0.00000000E+00
  0.00000000E+00  0.00000000E+00  0.00000000E+00
  0.00000000E+00  0.00000000E+00  0.00000000E+00
  0.00000000E+00  0.00000000E+00  0.00000000E+00
  0.00000000E+00  0.00000000E+00  0.00000000E+00
  0.00000000E+00  0.00000000E+00  0.00000000E+00
  0.00000000E+00  0.00000000E+00  0.00000000E+00
  0.00000000E+00  0.00000000E+00  0.00000000E+00
  0.00000000E+00  0.00000000E+00  0.00000000E+00
  0.00000000E+00  0.00000000E+00  0.00000000E+00
  0.00000000E+00  0.00000000E+00  0.00000000E+00
  0.00000000E+00  0.00000000E+00  0.00000000E+00
  0.00000000E+00  0.00000000E+00  0.00000000E+00
  0.00000000E+00  0.00000000E+00  0.00000000E+00
  0.00000000E+00  0.00000000E+00  0.00000000E+00
  0.00000000E+00  0.00000000E+00  0.00000000E+00
  0.00000000E+00  0.00000000E+00  0.00000000E+00
  0.00000000E+00  0.00000000E+00  0.00000000E+00
  0.00000000E+00  0.00000000E+00  0.00000000E+00
  0.00000000E+00  0.00000000E+00  0.00000000E+00
  0.00000000E+00  0.00000000E+00  0.00000000E+00
  0.00000000E+00  0.00000000E+00  0.00000000E+00
  0.00000000E+00  0.00000000E+00  0.00000000E+00
  0.00000000E+00  0.00000000E+00  0.00000000E+00
  0.00000000E+00  0.00000000E+00  0.00000000E+00
  0.00000000E+00  0.00000000E+00  0.00000000E+00
  0.00000000E+00  0.00000000E+00  0.00000000E+00
