Al Fe  C  O  H                          
   1.00000000000000     
    14.3189123190275875    0.0000000000000000    0.0000000000000000
     7.1594561595137938   12.4005418228398376    0.0000000000000000
   0.0000000000   0.0000000000   31.7131325718
   Al   Fe   C    O    H 
   123     2     1     1     1
Selective dynamics
Direct
0.9333333333333300   0.1333333333333329   0.3153267807   F   F   F
0.1333333333333329   0.1333333333333329   0.3153267807   F   F   F
0.3333333333333357   0.1333333333333329   0.3153267807   F   F   F
0.5333333333333314   0.1333333333333329   0.3153267807   F   F   F
0.7333333333333343   0.1333333333333329   0.3153267807   F   F   F
0.9333333333333300   0.3333333333333357   0.3153267807   F   F   F
0.1333333333333329   0.3333333333333357   0.3153267807   F   F   F
0.3333333333333357   0.3333333333333357   0.3153267807   F   F   F
0.5333333333333314   0.3333333333333357   0.3153267807   F   F   F
0.7333333333333343   0.3333333333333357   0.3153267807   F   F   F
0.9333333333333300   0.5333333333333314   0.3153267807   F   F   F
0.1333333333333329   0.5333333333333314   0.3153267807   F   F   F
0.3333333333333357   0.5333333333333314   0.3153267807   F   F   F
0.5333333333333314   0.5333333333333314   0.3153267807   F   F   F
0.7333333333333343   0.5333333333333314   0.3153267807   F   F   F
0.9333333333333300   0.7333333333333343   0.3153267807   F   F   F
0.1333333333333329   0.7333333333333343   0.3153267807   F   F   F
0.3333333333333357   0.7333333333333343   0.3153267807   F   F   F
0.5333333333333314   0.7333333333333343   0.3153267807   F   F   F
0.7333333333333343   0.7333333333333343   0.3153267807   F   F   F
0.9333333333333300   0.9333333333333371   0.3153267807   F   F   F
0.1333333333333329   0.9333333333333371   0.3153267807   F   F   F
0.3333333333333357   0.9333333333333371   0.3153267807   F   F   F
0.5333333333333314   0.9333333333333371   0.3153267807   F   F   F
0.7333333333333343   0.9333333333333371   0.3153267807   F   F   F
0.0000000000000000   0.0000000000000000   0.3890586514   F   F   F
0.2000000000000028   0.0000000000000000   0.3890586514   F   F   F
0.3999999999999986   0.0000000000000000   0.3890586514   F   F   F
0.6000000000000014   0.0000000000000000   0.3890586514   F   F   F
0.7999999999999972   0.0000000000000000   0.3890586514   F   F   F
0.0000000000000000   0.2000000000000028   0.3890586514   F   F   F
0.2000000000000028   0.2000000000000028   0.3890586514   F   F   F
0.3999999999999986   0.2000000000000028   0.3890586514   F   F   F
0.6000000000000014   0.2000000000000028   0.3890586514   F   F   F
0.7999999999999972   0.2000000000000028   0.3890586514   F   F   F
0.0000000000000000   0.3999999999999986   0.3890586514   F   F   F
0.2000000000000028   0.3999999999999986   0.3890586514   F   F   F
0.3999999999999986   0.3999999999999986   0.3890586514   F   F   F
0.6000000000000014   0.3999999999999986   0.3890586514   F   F   F
0.7999999999999972   0.3999999999999986   0.3890586514   F   F   F
0.0000000000000000   0.6000000000000014   0.3890586514   F   F   F
0.2000000000000028   0.6000000000000014   0.3890586514   F   F   F
0.3999999999999986   0.6000000000000014   0.3890586514   F   F   F
0.6000000000000014   0.6000000000000014   0.3890586514   F   F   F
0.7999999999999972   0.6000000000000014   0.3890586514   F   F   F
0.0000000000000000   0.7999999999999972   0.3890586514   F   F   F
0.2000000000000028   0.7999999999999972   0.3890586514   F   F   F
0.3999999999999986   0.7999999999999972   0.3890586514   F   F   F
0.6000000000000014   0.7999999999999972   0.3890586514   F   F   F
0.7999999999999972   0.7999999999999972   0.3890586514   F   F   F
0.0666666666666700   0.0666666666666700   0.4627905221   F   F   F
0.2666666666666657   0.0666666666666700   0.4627905221   F   F   F
0.4666666666666686   0.0666666666666700   0.4627905221   F   F   F
0.6666666666666643   0.0666666666666700   0.4627905221   F   F   F
0.8666666666666671   0.0666666666666700   0.4627905221   F   F   F
0.0666666666666700   0.2666666666666657   0.4627905221   F   F   F
0.2666666666666657   0.2666666666666657   0.4627905221   F   F   F
0.4666666666666686   0.2666666666666657   0.4627905221   F   F   F
0.6666666666666643   0.2666666666666657   0.4627905221   F   F   F
0.8666666666666671   0.2666666666666657   0.4627905221   F   F   F
0.0666666666666700   0.4666666666666686   0.4627905221   F   F   F
0.2666666666666657   0.4666666666666686   0.4627905221   F   F   F
0.4666666666666686   0.4666666666666686   0.4627905221   F   F   F
0.6666666666666643   0.4666666666666686   0.4627905221   F   F   F
0.8666666666666671   0.4666666666666686   0.4627905221   F   F   F
0.0666666666666700   0.6666666666666643   0.4627905221   F   F   F
0.2666666666666657   0.6666666666666643   0.4627905221   F   F   F
0.4666666666666686   0.6666666666666643   0.4627905221   F   F   F
0.6666666666666643   0.6666666666666643   0.4627905221   F   F   F
0.8666666666666671   0.6666666666666643   0.4627905221   F   F   F
0.0666666666666700   0.8666666666666671   0.4627905221   F   F   F
0.2666666666666657   0.8666666666666671   0.4627905221   F   F   F
0.4666666666666686   0.8666666666666671   0.4627905221   F   F   F
0.6666666666666643   0.8666666666666671   0.4627905221   F   F   F
0.8666666666666671   0.8666666666666671   0.4627905221   F   F   F
0.9326255446102356   0.1329748521263418   0.5361657646   T   T   T
0.1352359979622708   0.1320746382439856   0.5362653506   T   T   T
0.3351822784893564   0.1346033702835285   0.5358624124   T   T   T
0.5303355156526632   0.1336724625105755   0.5354749473   T   T   T
0.7304815957768169   0.1332761203498059   0.5365797813   T   T   T
0.9330341570832910   0.3328892343471004   0.5357459594   T   T   T
0.1321687207320656   0.3322806053988531   0.5337567078   T   T   T
0.3302161355319813   0.3409968185793879   0.5372252514   T   T   T
0.5316689835701144   0.3340330685068263   0.5348142738   T   T   T
0.7322062945650069   0.3331224022210081   0.5361067628   T   T   T
0.9297384938291764   0.5341421689915057   0.5349728437   T   T   T
0.1317419790083804   0.5316886724795917   0.5349036954   T   T   T
0.3349180205005174   0.5308311856988041   0.5372525357   T   T   T
0.5352119559217735   0.5345728771892867   0.5345190337   T   T   T
0.7326788151946412   0.5331118304495848   0.5360550061   T   T   T
0.9330915456208735   0.7312954209634542   0.5365329076   T   T   T
0.1366776992424493   0.7262689650024057   0.5369112318   T   T   T
0.3355628151239831   0.7312249321615236   0.5363352585   T   T   T
0.5338898254727868   0.7344240046002102   0.5363212809   T   T   T
0.7317370187598674   0.7343418898949211   0.5363588946   T   T   T
0.9350117656024075   0.9303173076047272   0.5365909040   T   T   T
0.1345967960172476   0.9296276830998131   0.5366517555   T   T   T
0.3342392562573989   0.9325263034500890   0.5363347631   T   T   T
0.5334810382585168   0.9335465396785051   0.5365496028   T   T   T
0.7333493277592469   0.9326333956093835   0.5365750778   T   T   T
0.0021972649138015   0.9960473698071478   0.6102930792   T   T   T
0.2016208469359261   0.9984277774006264   0.6105351227   T   T   T
0.3980424592884060   0.0074513149048503   0.6100164826   T   T   T
0.5939755134154866   0.0087833180366505   0.6102693875   T   T   T
0.7997446831964478   -0.0016016118819366   0.6106379818   T   T   T
0.0020754488401407   0.1983026043629672   0.6100102011   T   T   T
0.2027332443839606   0.2075557796093329   0.6087233675   T   T   T
0.3831210805536788   0.2347813256484001   0.6100802060   T   T   T
0.5881060687248495   0.2094175172275238   0.6083370300   T   T   T
0.7981622125477421   0.1990591435848532   0.6101115114   T   T   T
0.0044338860069903   0.3977927276810171   0.6079062948   T   T   T
0.5951274284868763   0.3983667022666738   0.6079649967   T   T   T
0.8005725700601521   0.3978384984542781   0.6104559938   T   T   T
0.0065666302190490   0.5902995369346289   0.6082621119   T   T   T
0.2118089924079685   0.5666729582832665   0.6133094043   T   T   T
0.4029883362952188   0.5911128142736517   0.6074190218   T   T   T
0.5988705937606835   0.5967311540328244   0.6099704577   T   T   T
0.8016870596865142   0.5970887765203334   0.6100687596   T   T   T
0.0053341061197009   0.7909356197848963   0.6104889761   T   T   T
0.2053225027367852   0.7891836707767080   0.6106049350   T   T   T
0.4010381506106732   0.8007491396515103   0.6110439197   T   T   T
0.5996614547687170   0.8014771830174664   0.6116094919   T   T   T
0.8000866061676812   0.7989906183289913   0.6112170572   T   T   T
0.1861946412238647   0.3986739801918461   0.5947419792   T   T   T
0.4096859769137899   0.4035269875291312   0.6011601974   T   T   T
0.3612395659839573   0.4399636365569825   0.6569624123   T   T   T
0.2659203708425290   0.5194278497879331   0.6681698798   T   T   T
0.4108776127322354   0.3965616665698113   0.6846732193   T   T   T
 
  0.00000000E+00  0.00000000E+00  0.00000000E+00
  0.00000000E+00  0.00000000E+00  0.00000000E+00
  0.00000000E+00  0.00000000E+00  0.00000000E+00
  0.00000000E+00  0.00000000E+00  0.00000000E+00
  0.00000000E+00  0.00000000E+00  0.00000000E+00
  0.00000000E+00  0.00000000E+00  0.00000000E+00
  0.00000000E+00  0.00000000E+00  0.00000000E+00
  0.00000000E+00  0.00000000E+00  0.00000000E+00
  0.00000000E+00  0.00000000E+00  0.00000000E+00
  0.00000000E+00  0.00000000E+00  0.00000000E+00
  0.00000000E+00  0.00000000E+00  0.00000000E+00
  0.00000000E+00  0.00000000E+00  0.00000000E+00
  0.00000000E+00  0.00000000E+00  0.00000000E+00
  0.00000000E+00  0.00000000E+00  0.00000000E+00
  0.00000000E+00  0.00000000E+00  0.00000000E+00
  0.00000000E+00  0.00000000E+00  0.00000000E+00
  0.00000000E+00  0.00000000E+00  0.00000000E+00
  0.00000000E+00  0.00000000E+00  0.00000000E+00
  0.00000000E+00  0.00000000E+00  0.00000000E+00
  0.00000000E+00  0.00000000E+00  0.00000000E+00
  0.00000000E+00  0.00000000E+00  0.00000000E+00
  0.00000000E+00  0.00000000E+00  0.00000000E+00
  0.00000000E+00  0.00000000E+00  0.00000000E+00
  0.00000000E+00  0.00000000E+00  0.00000000E+00
  0.00000000E+00  0.00000000E+00  0.00000000E+00
  0.00000000E+00  0.00000000E+00  0.00000000E+00
  0.00000000E+00  0.00000000E+00  0.00000000E+00
  0.00000000E+00  0.00000000E+00  0.00000000E+00
  0.00000000E+00  0.00000000E+00  0.00000000E+00
  0.00000000E+00  0.00000000E+00  0.00000000E+00
  0.00000000E+00  0.00000000E+00  0.00000000E+00
  0.00000000E+00  0.00000000E+00  0.00000000E+00
  0.00000000E+00  0.00000000E+00  0.00000000E+00
  0.00000000E+00  0.00000000E+00  0.00000000E+00
  0.00000000E+00  0.00000000E+00  0.00000000E+00
  0.00000000E+00  0.00000000E+00  0.00000000E+00
  0.00000000E+00  0.00000000E+00  0.00000000E+00
  0.00000000E+00  0.00000000E+00  0.00000000E+00
  0.00000000E+00  0.00000000E+00  0.00000000E+00
  0.00000000E+00  0.00000000E+00  0.00000000E+00
  0.00000000E+00  0.00000000E+00  0.00000000E+00
  0.00000000E+00  0.00000000E+00  0.00000000E+00
  0.00000000E+00  0.00000000E+00  0.00000000E+00
  0.00000000E+00  0.00000000E+00  0.00000000E+00
  0.00000000E+00  0.00000000E+00  0.00000000E+00
  0.00000000E+00  0.00000000E+00  0.00000000E+00
  0.00000000E+00  0.00000000E+00  0.00000000E+00
  0.00000000E+00  0.00000000E+00  0.00000000E+00
  0.00000000E+00  0.00000000E+00  0.00000000E+00
  0.00000000E+00  0.00000000E+00  0.00000000E+00
  0.00000000E+00  0.00000000E+00  0.00000000E+00
  0.00000000E+00  0.00000000E+00  0.00000000E+00
  0.00000000E+00  0.00000000E+00  0.00000000E+00
  0.00000000E+00  0.00000000E+00  0.00000000E+00
  0.00000000E+00  0.00000000E+00  0.00000000E+00
  0.00000000E+00  0.00000000E+00  0.00000000E+00
  0.00000000E+00  0.00000000E+00  0.00000000E+00
  0.00000000E+00  0.00000000E+00  0.00000000E+00
  0.00000000E+00  0.00000000E+00  0.00000000E+00
  0.00000000E+00  0.00000000E+00  0.00000000E+00
  0.00000000E+00  0.00000000E+00  0.00000000E+00
  0.00000000E+00  0.00000000E+00  0.00000000E+00
  0.00000000E+00  0.00000000E+00  0.00000000E+00
  0.00000000E+00  0.00000000E+00  0.00000000E+00
  0.00000000E+00  0.00000000E+00  0.00000000E+00
  0.00000000E+00  0.00000000E+00  0.00000000E+00
  0.00000000E+00  0.00000000E+00  0.00000000E+00
  0.00000000E+00  0.00000000E+00  0.00000000E+00
  0.00000000E+00  0.00000000E+00  0.00000000E+00
  0.00000000E+00  0.00000000E+00  0.00000000E+00
  0.00000000E+00  0.00000000E+00  0.00000000E+00
  0.00000000E+00  0.00000000E+00  0.00000000E+00
  0.00000000E+00  0.00000000E+00  0.00000000E+00
  0.00000000E+00  0.00000000E+00  0.00000000E+00
  0.00000000E+00  0.00000000E+00  0.00000000E+00
  0.00000000E+00  0.00000000E+00  0.00000000E+00
  0.00000000E+00  0.00000000E+00  0.00000000E+00
  0.00000000E+00  0.00000000E+00  0.00000000E+00
  0.00000000E+00  0.00000000E+00  0.00000000E+00
  0.00000000E+00  0.00000000E+00  0.00000000E+00
  0.00000000E+00  0.00000000E+00  0.00000000E+00
  0.00000000E+00  0.00000000E+00  0.00000000E+00
  0.00000000E+00  0.00000000E+00  0.00000000E+00
  0.00000000E+00  0.00000000E+00  0.00000000E+00
  0.00000000E+00  0.00000000E+00  0.00000000E+00
  0.00000000E+00  0.00000000E+00  0.00000000E+00
  0.00000000E+00  0.00000000E+00  0.00000000E+00
  0.00000000E+00  0.00000000E+00  0.00000000E+00
  0.00000000E+00  0.00000000E+00  0.00000000E+00
  0.00000000E+00  0.00000000E+00  0.00000000E+00
  0.00000000E+00  0.00000000E+00  0.00000000E+00
  0.00000000E+00  0.00000000E+00  0.00000000E+00
  0.00000000E+00  0.00000000E+00  0.00000000E+00
  0.00000000E+00  0.00000000E+00  0.00000000E+00
  0.00000000E+00  0.00000000E+00  0.00000000E+00
  0.00000000E+00  0.00000000E+00  0.00000000E+00
  0.00000000E+00  0.00000000E+00  0.00000000E+00
  0.00000000E+00  0.00000000E+00  0.00000000E+00
  0.00000000E+00  0.00000000E+00  0.00000000E+00
  0.00000000E+00  0.00000000E+00  0.00000000E+00
  0.00000000E+00  0.00000000E+00  0.00000000E+00
  0.00000000E+00  0.00000000E+00  0.00000000E+00
  0.00000000E+00  0.00000000E+00  0.00000000E+00
  0.00000000E+00  0.00000000E+00  0.00000000E+00
  0.00000000E+00  0.00000000E+00  0.00000000E+00
  0.00000000E+00  0.00000000E+00  0.00000000E+00
  0.00000000E+00  0.00000000E+00  0.00000000E+00
  0.00000000E+00  0.00000000E+00  0.00000000E+00
  0.00000000E+00  0.00000000E+00  0.00000000E+00
  0.00000000E+00  0.00000000E+00  0.00000000E+00
  0.00000000E+00  0.00000000E+00  0.00000000E+00
  0.00000000E+00  0.00000000E+00  0.00000000E+00
  0.00000000E+00  0.00000000E+00  0.00000000E+00
  0.00000000E+00  0.00000000E+00  0.00000000E+00
  0.00000000E+00  0.00000000E+00  0.00000000E+00
  0.00000000E+00  0.00000000E+00  0.00000000E+00
  0.00000000E+00  0.00000000E+00  0.00000000E+00
  0.00000000E+00  0.00000000E+00  0.00000000E+00
  0.00000000E+00  0.00000000E+00  0.00000000E+00
  0.00000000E+00  0.00000000E+00  0.00000000E+00
  0.00000000E+00  0.00000000E+00  0.00000000E+00
  0.00000000E+00  0.00000000E+00  0.00000000E+00
  0.00000000E+00  0.00000000E+00  0.00000000E+00
  0.00000000E+00  0.00000000E+00  0.00000000E+00
  0.00000000E+00  0.00000000E+00  0.00000000E+00
  0.00000000E+00  0.00000000E+00  0.00000000E+00
  0.00000000E+00  0.00000000E+00  0.00000000E+00
  0.00000000E+00  0.00000000E+00  0.00000000E+00
