Al Fe Al  C  O  H                       
   1.00000000000000     
    14.3189123190275875    0.0000000000000000    0.0000000000000000
     7.1594561595137938   12.4005418228398376    0.0000000000000000
   0.0000000000   0.0000000000   32.7415493229
   Al   Fe   Al   C    O    H 
   112     1    12     1     1     3
Selective dynamics
Direct
0.9333333333333300   0.1333333333333329   0.3054223214   F   F   F
0.1333333333333329   0.1333333333333329   0.3054223214   F   F   F
0.3333333333333357   0.1333333333333329   0.3054223214   F   F   F
0.5333333333333314   0.1333333333333329   0.3054223214   F   F   F
0.7333333333333343   0.1333333333333329   0.3054223214   F   F   F
0.9333333333333300   0.3333333333333357   0.3054223214   F   F   F
0.1333333333333329   0.3333333333333357   0.3054223214   F   F   F
0.3333333333333357   0.3333333333333357   0.3054223214   F   F   F
0.5333333333333314   0.3333333333333357   0.3054223214   F   F   F
0.7333333333333343   0.3333333333333357   0.3054223214   F   F   F
0.9333333333333300   0.5333333333333314   0.3054223214   F   F   F
0.1333333333333329   0.5333333333333314   0.3054223214   F   F   F
0.3333333333333357   0.5333333333333314   0.3054223214   F   F   F
0.5333333333333314   0.5333333333333314   0.3054223214   F   F   F
0.7333333333333343   0.5333333333333314   0.3054223214   F   F   F
0.9333333333333300   0.7333333333333343   0.3054223214   F   F   F
0.1333333333333329   0.7333333333333343   0.3054223214   F   F   F
0.3333333333333357   0.7333333333333343   0.3054223214   F   F   F
0.5333333333333314   0.7333333333333343   0.3054223214   F   F   F
0.7333333333333343   0.7333333333333343   0.3054223214   F   F   F
0.9333333333333300   0.9333333333333371   0.3054223214   F   F   F
0.1333333333333329   0.9333333333333371   0.3054223214   F   F   F
0.3333333333333357   0.9333333333333371   0.3054223214   F   F   F
0.5333333333333314   0.9333333333333371   0.3054223214   F   F   F
0.7333333333333343   0.9333333333333371   0.3054223214   F   F   F
0.0000000000000000   0.0000000000000000   0.3768382634   F   F   F
0.2000000000000028   0.0000000000000000   0.3768382634   F   F   F
0.3999999999999986   0.0000000000000000   0.3768382634   F   F   F
0.6000000000000014   0.0000000000000000   0.3768382634   F   F   F
0.7999999999999972   0.0000000000000000   0.3768382634   F   F   F
0.0000000000000000   0.2000000000000028   0.3768382634   F   F   F
0.2000000000000028   0.2000000000000028   0.3768382634   F   F   F
0.3999999999999986   0.2000000000000028   0.3768382634   F   F   F
0.6000000000000014   0.2000000000000028   0.3768382634   F   F   F
0.7999999999999972   0.2000000000000028   0.3768382634   F   F   F
0.0000000000000000   0.3999999999999986   0.3768382634   F   F   F
0.2000000000000028   0.3999999999999986   0.3768382634   F   F   F
0.3999999999999986   0.3999999999999986   0.3768382634   F   F   F
0.6000000000000014   0.3999999999999986   0.3768382634   F   F   F
0.7999999999999972   0.3999999999999986   0.3768382634   F   F   F
0.0000000000000000   0.6000000000000014   0.3768382634   F   F   F
0.2000000000000028   0.6000000000000014   0.3768382634   F   F   F
0.3999999999999986   0.6000000000000014   0.3768382634   F   F   F
0.6000000000000014   0.6000000000000014   0.3768382634   F   F   F
0.7999999999999972   0.6000000000000014   0.3768382634   F   F   F
0.0000000000000000   0.7999999999999972   0.3768382634   F   F   F
0.2000000000000028   0.7999999999999972   0.3768382634   F   F   F
0.3999999999999986   0.7999999999999972   0.3768382634   F   F   F
0.6000000000000014   0.7999999999999972   0.3768382634   F   F   F
0.7999999999999972   0.7999999999999972   0.3768382634   F   F   F
0.0666666666666700   0.0666666666666700   0.4482542055   F   F   F
0.2666666666666657   0.0666666666666700   0.4482542055   F   F   F
0.4666666666666686   0.0666666666666700   0.4482542055   F   F   F
0.6666666666666643   0.0666666666666700   0.4482542055   F   F   F
0.8666666666666671   0.0666666666666700   0.4482542055   F   F   F
0.0666666666666700   0.2666666666666657   0.4482542055   F   F   F
0.2666666666666657   0.2666666666666657   0.4482542055   F   F   F
0.4666666666666686   0.2666666666666657   0.4482542055   F   F   F
0.6666666666666643   0.2666666666666657   0.4482542055   F   F   F
0.8666666666666671   0.2666666666666657   0.4482542055   F   F   F
0.0666666666666700   0.4666666666666686   0.4482542055   F   F   F
0.2666666666666657   0.4666666666666686   0.4482542055   F   F   F
0.4666666666666686   0.4666666666666686   0.4482542055   F   F   F
0.6666666666666643   0.4666666666666686   0.4482542055   F   F   F
0.8666666666666671   0.4666666666666686   0.4482542055   F   F   F
0.0666666666666700   0.6666666666666643   0.4482542055   F   F   F
0.2666666666666657   0.6666666666666643   0.4482542055   F   F   F
0.4666666666666686   0.6666666666666643   0.4482542055   F   F   F
0.6666666666666643   0.6666666666666643   0.4482542055   F   F   F
0.8666666666666671   0.6666666666666643   0.4482542055   F   F   F
0.0666666666666700   0.8666666666666671   0.4482542055   F   F   F
0.2666666666666657   0.8666666666666671   0.4482542055   F   F   F
0.4666666666666686   0.8666666666666671   0.4482542055   F   F   F
0.6666666666666643   0.8666666666666671   0.4482542055   F   F   F
0.8666666666666671   0.8666666666666671   0.4482542055   F   F   F
0.9303257910754872   0.1341911343648543   0.5194986357   T   T   T
0.1321488494686579   0.1321795781524377   0.5191701663   T   T   T
0.3332872452579259   0.1304424984479464   0.5188449182   T   T   T
0.5337286670471961   0.1283385164795252   0.5179919183   T   T   T
0.7305108891577698   0.1328360005112493   0.5196241204   T   T   T
0.9305551239834796   0.3328583281792061   0.5197172300   T   T   T
0.1305807864144945   0.3332516264089354   0.5188554463   T   T   T
0.3304361699733530   0.3300959807149128   0.5164416437   T   T   T
0.5290114059464752   0.3336923598289739   0.5197730745   T   T   T
0.7290047968805468   0.3331753918649493   0.5199649690   T   T   T
0.9298400618275926   0.5332033346733335   0.5193477857   T   T   T
0.1286235815444972   0.5335046942866509   0.5180593489   T   T   T
0.3337060656800525   0.5288542008815418   0.5196342871   T   T   T
0.5303644781641890   0.5303527569792139   0.5223619089   T   T   T
0.7312127919185430   0.5321908709501275   0.5198681864   T   T   T
0.9309331551543020   0.7339076645314486   0.5194512903   T   T   T
0.1323973212251087   0.7307435320597220   0.5196524913   T   T   T
0.3331596620069529   0.7289388757220843   0.5198914984   T   T   T
0.5320832761957587   0.7310709355748384   0.5198511508   T   T   T
0.7318758340070161   0.7320184627650241   0.5200576245   T   T   T
0.9338158005377097   0.9338890108663784   0.5196322291   T   T   T
0.1337635389348376   0.9304846669499225   0.5196436554   T   T   T
0.3326771596193527   0.9306508767187515   0.5197487472   T   T   T
0.5331470334183170   0.9297823584828833   0.5193112999   T   T   T
0.7341749750658810   0.9309428490374805   0.5194541061   T   T   T
-0.0011992881982232   -0.0000351153728780   0.5912294939   T   T   T
0.1998198857557770   -0.0027227328421803   0.5910144408   T   T   T
0.3992065795673507   -0.0016389916136910   0.5910624040   T   T   T
0.5976441667461920   -0.0000766479562822   0.5905475344   T   T   T
0.7978342803821363   -0.0002440505615100   0.5911830315   T   T   T
-0.0034360342843275   0.2007085146206907   0.5910211605   T   T   T
0.1980943306486384   0.1983636147034072   0.5901743178   T   T   T
0.3968369592086544   0.2023442347790665   0.5885053803   T   T   T
0.5899682641201696   0.2020828978053592   0.5884600513   T   T   T
0.7941659423529152   0.1999961758910495   0.5920174715   T   T   T
-0.0018908273614297   0.3992512885641395   0.5910904567   T   T   T
0.2018116560147560   0.3975279276959706   0.5885387704   T   T   T
0.3878956669934420   0.3875258281102463   0.5753848200   T   T   T
0.5926013725588183   0.3935424219958240   0.5949962381   T   T   T
0.7939232175442755   0.3993085954296003   0.5920289958   T   T   T
0.0005929406708681   0.5974817200159755   0.5906415360   T   T   T
0.2023047702788498   0.5901747449125748   0.5883329964   T   T   T
0.3925453195107926   0.5925915821941515   0.5953588538   T   T   T
0.5977113935435899   0.5979238486664985   0.5910830846   T   T   T
0.7995871127004465   0.5981307043211995   0.5922063048   T   T   T
-0.0004957538079525   0.7981374952409415   0.5913020444   T   T   T
0.2004549561501424   0.7935911271853374   0.5919613072   T   T   T
0.3990927848157041   0.7937523192425598   0.5920029056   T   T   T
0.5980169087719135   0.7992217687767758   0.5921976290   T   T   T
0.7988794017618501   0.7987748595604942   0.5919449888   T   T   T
0.4344055453184645   0.4345682446103385   0.6652284126   T   T   T
0.4744518798833349   0.4744303443513114   0.6332429304   T   T   T
0.3488693769969775   0.4637119453461155   0.6604390472   T   T   T
0.4769499328439782   0.3470745763976626   0.6641292435   T   T   T
0.4468507256089084   0.4616666472988650   0.6945776786   T   T   T
 
  0.00000000E+00  0.00000000E+00  0.00000000E+00
  0.00000000E+00  0.00000000E+00  0.00000000E+00
  0.00000000E+00  0.00000000E+00  0.00000000E+00
  0.00000000E+00  0.00000000E+00  0.00000000E+00
  0.00000000E+00  0.00000000E+00  0.00000000E+00
  0.00000000E+00  0.00000000E+00  0.00000000E+00
  0.00000000E+00  0.00000000E+00  0.00000000E+00
  0.00000000E+00  0.00000000E+00  0.00000000E+00
  0.00000000E+00  0.00000000E+00  0.00000000E+00
  0.00000000E+00  0.00000000E+00  0.00000000E+00
  0.00000000E+00  0.00000000E+00  0.00000000E+00
  0.00000000E+00  0.00000000E+00  0.00000000E+00
  0.00000000E+00  0.00000000E+00  0.00000000E+00
  0.00000000E+00  0.00000000E+00  0.00000000E+00
  0.00000000E+00  0.00000000E+00  0.00000000E+00
  0.00000000E+00  0.00000000E+00  0.00000000E+00
  0.00000000E+00  0.00000000E+00  0.00000000E+00
  0.00000000E+00  0.00000000E+00  0.00000000E+00
  0.00000000E+00  0.00000000E+00  0.00000000E+00
  0.00000000E+00  0.00000000E+00  0.00000000E+00
  0.00000000E+00  0.00000000E+00  0.00000000E+00
  0.00000000E+00  0.00000000E+00  0.00000000E+00
  0.00000000E+00  0.00000000E+00  0.00000000E+00
  0.00000000E+00  0.00000000E+00  0.00000000E+00
  0.00000000E+00  0.00000000E+00  0.00000000E+00
  0.00000000E+00  0.00000000E+00  0.00000000E+00
  0.00000000E+00  0.00000000E+00  0.00000000E+00
  0.00000000E+00  0.00000000E+00  0.00000000E+00
  0.00000000E+00  0.00000000E+00  0.00000000E+00
  0.00000000E+00  0.00000000E+00  0.00000000E+00
  0.00000000E+00  0.00000000E+00  0.00000000E+00
  0.00000000E+00  0.00000000E+00  0.00000000E+00
  0.00000000E+00  0.00000000E+00  0.00000000E+00
  0.00000000E+00  0.00000000E+00  0.00000000E+00
  0.00000000E+00  0.00000000E+00  0.00000000E+00
  0.00000000E+00  0.00000000E+00  0.00000000E+00
  0.00000000E+00  0.00000000E+00  0.00000000E+00
  0.00000000E+00  0.00000000E+00  0.00000000E+00
  0.00000000E+00  0.00000000E+00  0.00000000E+00
  0.00000000E+00  0.00000000E+00  0.00000000E+00
  0.00000000E+00  0.00000000E+00  0.00000000E+00
  0.00000000E+00  0.00000000E+00  0.00000000E+00
  0.00000000E+00  0.00000000E+00  0.00000000E+00
  0.00000000E+00  0.00000000E+00  0.00000000E+00
  0.00000000E+00  0.00000000E+00  0.00000000E+00
  0.00000000E+00  0.00000000E+00  0.00000000E+00
  0.00000000E+00  0.00000000E+00  0.00000000E+00
  0.00000000E+00  0.00000000E+00  0.00000000E+00
  0.00000000E+00  0.00000000E+00  0.00000000E+00
  0.00000000E+00  0.00000000E+00  0.00000000E+00
  0.00000000E+00  0.00000000E+00  0.00000000E+00
  0.00000000E+00  0.00000000E+00  0.00000000E+00
  0.00000000E+00  0.00000000E+00  0.00000000E+00
  0.00000000E+00  0.00000000E+00  0.00000000E+00
  0.00000000E+00  0.00000000E+00  0.00000000E+00
  0.00000000E+00  0.00000000E+00  0.00000000E+00
  0.00000000E+00  0.00000000E+00  0.00000000E+00
  0.00000000E+00  0.00000000E+00  0.00000000E+00
  0.00000000E+00  0.00000000E+00  0.00000000E+00
  0.00000000E+00  0.00000000E+00  0.00000000E+00
  0.00000000E+00  0.00000000E+00  0.00000000E+00
  0.00000000E+00  0.00000000E+00  0.00000000E+00
  0.00000000E+00  0.00000000E+00  0.00000000E+00
  0.00000000E+00  0.00000000E+00  0.00000000E+00
  0.00000000E+00  0.00000000E+00  0.00000000E+00
  0.00000000E+00  0.00000000E+00  0.00000000E+00
  0.00000000E+00  0.00000000E+00  0.00000000E+00
  0.00000000E+00  0.00000000E+00  0.00000000E+00
  0.00000000E+00  0.00000000E+00  0.00000000E+00
  0.00000000E+00  0.00000000E+00  0.00000000E+00
  0.00000000E+00  0.00000000E+00  0.00000000E+00
  0.00000000E+00  0.00000000E+00  0.00000000E+00
  0.00000000E+00  0.00000000E+00  0.00000000E+00
  0.00000000E+00  0.00000000E+00  0.00000000E+00
  0.00000000E+00  0.00000000E+00  0.00000000E+00
  0.00000000E+00  0.00000000E+00  0.00000000E+00
  0.00000000E+00  0.00000000E+00  0.00000000E+00
  0.00000000E+00  0.00000000E+00  0.00000000E+00
  0.00000000E+00  0.00000000E+00  0.00000000E+00
  0.00000000E+00  0.00000000E+00  0.00000000E+00
  0.00000000E+00  0.00000000E+00  0.00000000E+00
  0.00000000E+00  0.00000000E+00  0.00000000E+00
  0.00000000E+00  0.00000000E+00  0.00000000E+00
  0.00000000E+00  0.00000000E+00  0.00000000E+00
  0.00000000E+00  0.00000000E+00  0.00000000E+00
  0.00000000E+00  0.00000000E+00  0.00000000E+00
  0.00000000E+00  0.00000000E+00  0.00000000E+00
  0.00000000E+00  0.00000000E+00  0.00000000E+00
  0.00000000E+00  0.00000000E+00  0.00000000E+00
  0.00000000E+00  0.00000000E+00  0.00000000E+00
  0.00000000E+00  0.00000000E+00  0.00000000E+00
  0.00000000E+00  0.00000000E+00  0.00000000E+00
  0.00000000E+00  0.00000000E+00  0.00000000E+00
  0.00000000E+00  0.00000000E+00  0.00000000E+00
  0.00000000E+00  0.00000000E+00  0.00000000E+00
  0.00000000E+00  0.00000000E+00  0.00000000E+00
  0.00000000E+00  0.00000000E+00  0.00000000E+00
  0.00000000E+00  0.00000000E+00  0.00000000E+00
  0.00000000E+00  0.00000000E+00  0.00000000E+00
  0.00000000E+00  0.00000000E+00  0.00000000E+00
  0.00000000E+00  0.00000000E+00  0.00000000E+00
  0.00000000E+00  0.00000000E+00  0.00000000E+00
  0.00000000E+00  0.00000000E+00  0.00000000E+00
  0.00000000E+00  0.00000000E+00  0.00000000E+00
  0.00000000E+00  0.00000000E+00  0.00000000E+00
  0.00000000E+00  0.00000000E+00  0.00000000E+00
  0.00000000E+00  0.00000000E+00  0.00000000E+00
  0.00000000E+00  0.00000000E+00  0.00000000E+00
  0.00000000E+00  0.00000000E+00  0.00000000E+00
  0.00000000E+00  0.00000000E+00  0.00000000E+00
  0.00000000E+00  0.00000000E+00  0.00000000E+00
  0.00000000E+00  0.00000000E+00  0.00000000E+00
  0.00000000E+00  0.00000000E+00  0.00000000E+00
  0.00000000E+00  0.00000000E+00  0.00000000E+00
  0.00000000E+00  0.00000000E+00  0.00000000E+00
  0.00000000E+00  0.00000000E+00  0.00000000E+00
  0.00000000E+00  0.00000000E+00  0.00000000E+00
  0.00000000E+00  0.00000000E+00  0.00000000E+00
  0.00000000E+00  0.00000000E+00  0.00000000E+00
  0.00000000E+00  0.00000000E+00  0.00000000E+00
  0.00000000E+00  0.00000000E+00  0.00000000E+00
  0.00000000E+00  0.00000000E+00  0.00000000E+00
  0.00000000E+00  0.00000000E+00  0.00000000E+00
  0.00000000E+00  0.00000000E+00  0.00000000E+00
  0.00000000E+00  0.00000000E+00  0.00000000E+00
  0.00000000E+00  0.00000000E+00  0.00000000E+00
  0.00000000E+00  0.00000000E+00  0.00000000E+00
  0.00000000E+00  0.00000000E+00  0.00000000E+00
  0.00000000E+00  0.00000000E+00  0.00000000E+00
  0.00000000E+00  0.00000000E+00  0.00000000E+00
