Al Fe Al Fe Al  O  C 
 1.0000000000000000
    14.3189123190275875    0.0000000000000000    0.0000000000000000
     7.1594561595137938   12.4005418228398376    0.0000000000000000
     0.0000000000000000    0.0000000000000000   39.3530743608719362
 Al  Fe  Al  Fe  Al  O   C  
 111   2   3   1   8   1   1
Selective dynamics
Cartesian
 14.3189123190275360  1.6534055763786395 17.9999999999998828   F   F   F
  2.8637824638055078  1.6534055763786395 17.9999999999998828   F   F   F
  5.7275649276110663  1.6534055763786395 17.9999999999998828   F   F   F
  8.5913473914165230  1.6534055763786395 17.9999999999998828   F   F   F
 11.4551298552220793  1.6534055763786395 17.9999999999998828   F   F   F
 15.7508035509303159  4.1335139409466422 17.9999999999998828   F   F   F
  4.2956736957082864  4.1335139409466422 17.9999999999998828   F   F   F
  7.1594561595138444  4.1335139409466422 17.9999999999998828   F   F   F
 10.0232386233193012  4.1335139409466422 17.9999999999998828   F   F   F
 12.8870210871248592  4.1335139409466422 17.9999999999998828   F   F   F
 17.1826947828330425  6.6136223055145562 17.9999999999998828   F   F   F
  5.7275649276110148  6.6136223055145562 17.9999999999998828   F   F   F
  8.5913473914165728  6.6136223055145562 17.9999999999998828   F   F   F
 11.4551298552220295  6.6136223055145562 17.9999999999998828   F   F   F
 14.3189123190275875  6.6136223055145562 17.9999999999998828   F   F   F
 18.6145860147358206  9.0937306700825591 17.9999999999998828   F   F   F
  7.1594561595137938  9.0937306700825591 17.9999999999998828   F   F   F
 10.0232386233193509  9.0937306700825591 17.9999999999998828   F   F   F
 12.8870210871248077  9.0937306700825591 17.9999999999998828   F   F   F
 15.7508035509303657  9.0937306700825591 17.9999999999998828   F   F   F
 20.0464772466386023 11.5738390346505629 17.9999999999998828   F   F   F
  8.5913473914165728 11.5738390346505629 17.9999999999998828   F   F   F
 11.4551298552221308 11.5738390346505629 17.9999999999998828   F   F   F
 14.3189123190275875 11.5738390346505629 17.9999999999998828   F   F   F
 17.1826947828331456 11.5738390346505629 17.9999999999998828   F   F   F
  0.0000000000000000  0.0000000000000000 20.3382685902181279   F   F   F
  2.8637824638055576  0.0000000000000000 20.3382685902181279   F   F   F
  5.7275649276110148  0.0000000000000000 20.3382685902181279   F   F   F
  8.5913473914165728  0.0000000000000000 20.3382685902181279   F   F   F
 11.4551298552220295  0.0000000000000000 20.3382685902181279   F   F   F
  1.4318912319027788  2.4801083645680020 20.3382685902181279   F   F   F
  4.2956736957083361  2.4801083645680020 20.3382685902181279   F   F   F
  7.1594561595137938  2.4801083645680020 20.3382685902181279   F   F   F
 10.0232386233193509  2.4801083645680020 20.3382685902181279   F   F   F
 12.8870210871248077  2.4801083645680020 20.3382685902181279   F   F   F
  2.8637824638055074  4.9602167291359178 20.3382685902181279   F   F   F
  5.7275649276110645  4.9602167291359178 20.3382685902181279   F   F   F
  8.5913473914165230  4.9602167291359178 20.3382685902181279   F   F   F
 11.4551298552220793  4.9602167291359178 20.3382685902181279   F   F   F
 14.3189123190275360  4.9602167291359178 20.3382685902181279   F   F   F
  4.2956736957082864  7.4403250937039198 20.3382685902181279   F   F   F
  7.1594561595138444  7.4403250937039198 20.3382685902181279   F   F   F
 10.0232386233193012  7.4403250937039198 20.3382685902181279   F   F   F
 12.8870210871248592  7.4403250937039198 20.3382685902181279   F   F   F
 15.7508035509303159  7.4403250937039198 20.3382685902181279   F   F   F
  5.7275649276110148  9.9204334582718356 20.3382685902181279   F   F   F
  8.5913473914165728  9.9204334582718356 20.3382685902181279   F   F   F
 11.4551298552220295  9.9204334582718356 20.3382685902181279   F   F   F
 14.3189123190275875  9.9204334582718356 20.3382685902181279   F   F   F
 17.1826947828330461  9.9204334582718356 20.3382685902181279   F   F   F
  1.4318912319028303  0.8267027881893638 22.6765371804360889   F   F   F
  4.2956736957082864  0.8267027881893638 22.6765371804360889   F   F   F
  7.1594561595138453  0.8267027881893638 22.6765371804360889   F   F   F
 10.0232386233193012  0.8267027881893638 22.6765371804360889   F   F   F
 12.8870210871248592  0.8267027881893638 22.6765371804360889   F   F   F
  2.8637824638055585  3.3068111527572781 22.6765371804360889   F   F   F
  5.7275649276110148  3.3068111527572781 22.6765371804360889   F   F   F
  8.5913473914165728  3.3068111527572781 22.6765371804360889   F   F   F
 11.4551298552220295  3.3068111527572781 22.6765371804360889   F   F   F
 14.3189123190275875  3.3068111527572781 22.6765371804360889   F   F   F
  4.2956736957083379  5.7869195173252814 22.6765371804360889   F   F   F
  7.1594561595137947  5.7869195173252814 22.6765371804360889   F   F   F
 10.0232386233193527  5.7869195173252814 22.6765371804360889   F   F   F
 12.8870210871248094  5.7869195173252814 22.6765371804360889   F   F   F
 15.7508035509303674  5.7869195173252814 22.6765371804360889   F   F   F
  5.7275649276110663  8.2670278818931955 22.6765371804360889   F   F   F
  8.5913473914165230  8.2670278818931955 22.6765371804360889   F   F   F
 11.4551298552220810  8.2670278818931955 22.6765371804360889   F   F   F
 14.3189123190275378  8.2670278818931955 22.6765371804360889   F   F   F
 17.1826947828330958  8.2670278818931955 22.6765371804360889   F   F   F
  7.1594561595138453 10.7471362464611992 22.6765371804360889   F   F   F
 10.0232386233193012 10.7471362464611992 22.6765371804360889   F   F   F
 12.8870210871248609 10.7471362464611992 22.6765371804360889   F   F   F
 15.7508035509303177 10.7471362464611992 22.6765371804360889   F   F   F
 18.6145860147358739 10.7471362464611992 22.6765371804360889   F   F   F
 14.3241973540912433  1.6567277186140683 25.0155116954401997   F   F   F
  2.8909999578738170  1.6619698541123620 25.0132422595241763   F   F   F
  5.7519464002152514  1.6357735773191522 24.9686260337136687   F   F   F
  8.5582551475438517  1.6480560609886163 24.9902360697600159   F   F   F
 11.4274038859128968  1.6648493124336179 25.0133832794334197   F   F   F
 15.7719062655005242  4.1528825152482947 25.0133063233136355   F   F   F
  4.3180793721142567  4.1461499555006016 24.9608875709385281   F   F   F
  7.1376794302028728  4.1809734741101172 25.0207127157154758   F   F   F
 10.0016713723292447  4.1488221313908671 24.9562152065887588   F   F   F
 12.8655521641086530  4.1494305456650808 25.0098801666489834   F   F   F
 17.1800106770912606  6.6433893144665674 24.9688465311980394   F   F   F
  5.7578632617133305  6.5708899895239243 25.0208159710418272   F   F   F
  8.5680052908181530  6.6002279576263039 24.9903901482058508   F   F   F
 11.4562268287696565  6.6436626330814743 24.9855095575879602   F   F   F
 14.3151272346139375  6.6237289045393997 25.0164568387285264   F   F   F
 18.5935471032613933  9.0675871287411010 24.9902795731257186   F   F   F
  7.1616336331787682  9.0675794885968113 24.9563095535812600   F   F   F
 10.0496272919107241  9.0799351936928581 24.9855188813447349   F   F   F
 12.9027338808052487  9.1027553179007512 25.0213665992008032   F   F   F
 15.7402064936465482  9.1005075069151218 25.0194208802371314   F   F   F
 20.0423866941500606 11.5443087133572728 25.0134802008274661   F   F   F
  8.5941835244326938 11.5476938805961513 25.0098847669089857   F   F   F
 11.4616761782906913 11.5651244255563395 25.0162653575600871   F   F   F
 14.3194454594944247 11.5610107436369418 25.0193832883415794   F   F   F
 17.1728969222054104 11.5681257728059865 25.0134936107424615   F   F   F
  7.1578088431081834 12.3629467540026585 27.3458784878092658   F   F   F
 10.0236806931829996 12.3919920084379243 27.3557857510985905   F   F   F
  5.7394547575882733  0.0925063764982334 27.3490927533064045   F   F   F
  8.5850432480808507  0.0577834091025908 27.3529512086423736   F   F   F
 11.4508448796371383 -0.0021673942681101 27.3599161670737310   F   F   F
  1.4653540517926473  2.4994713687602013 27.3483052641200963   F   F   F
  4.3739437277392854  2.5825455388179810 27.2843076763857191   F   F   F
  7.1360976740162556  2.7750768970965507 27.2929139827912302   F   F   F
  9.9148227367520914  2.5858241772498234 27.3078307012729837   F   F   F
 12.8532441475890078  2.4982596183929289 27.3458992227055759   F   F   F
  2.9924203843295114  4.9758699062826057 27.2846106944521836   F   F   F
  5.6169334947342850  4.8960097023253946 27.0494592782114118   T   T   T
  8.6678056153953058  4.9258050351630507 26.9147520517416794   F   F   F
 11.3282600256658199  4.9848873047854356 27.3014423798180985   F   F   F
 14.3118724050740820  4.9650918063415084 27.3558920766667164   F   F   F
  4.5398346349422516  7.2721151978661576 27.2932804288724213   F   F   F
  7.1680047741505195  7.5237800260769374 26.9148734775985474   F   F   F
  9.7943481834222403  7.3083440067366414 27.3059011263646809   F   F   F
 12.8324919251407721  7.4170656741309999 27.3599609958070928   F   F   F
 15.8380465567181474  7.4036559000204010 27.3494517552060117   F   F   F
  5.7646452105808432  9.7736081104415593 27.3078191398654262   F   F   F
  8.5487770641213174  9.7987703377806241 27.3012752011132385   F   F   F
 11.4076286150003163  9.8849428885699702 27.3599607574461778   F   F   F
 14.3210147030534607  9.9209003626545620 27.4158549180038200   F   F   F
 17.2297226603978899  9.8860772432762278 27.3529884073050766   F   F   F
  6.4469703093921806  5.3746078581887424 29.8406982310486342   T   T   T
  6.1366378957155412  5.1956082783580557 28.7193543292569125   T   T   T
