Al  C  O  H                             
   1.00000000000000     
    14.3189123190275875    0.0000000000000000    0.0000000000000000
     7.1594561595137938   12.4005418228398376    0.0000000000000000
   0.0000000000   0.0000000000   32.5467770132
   Al   C    O    H 
   125     1     1     1
Selective dynamics
Direct
0.9333333333333300   0.1333333333333329   0.3072500849   F   F   F
0.1333333333333329   0.1333333333333329   0.3072500849   F   F   F
0.3333333333333357   0.1333333333333329   0.3072500849   F   F   F
0.5333333333333314   0.1333333333333329   0.3072500849   F   F   F
0.7333333333333343   0.1333333333333329   0.3072500849   F   F   F
0.9333333333333300   0.3333333333333357   0.3072500849   F   F   F
0.1333333333333329   0.3333333333333357   0.3072500849   F   F   F
0.3333333333333357   0.3333333333333357   0.3072500849   F   F   F
0.5333333333333314   0.3333333333333357   0.3072500849   F   F   F
0.7333333333333343   0.3333333333333357   0.3072500849   F   F   F
0.9333333333333300   0.5333333333333314   0.3072500849   F   F   F
0.1333333333333329   0.5333333333333314   0.3072500849   F   F   F
0.3333333333333357   0.5333333333333314   0.3072500849   F   F   F
0.5333333333333314   0.5333333333333314   0.3072500849   F   F   F
0.7333333333333343   0.5333333333333314   0.3072500849   F   F   F
0.9333333333333300   0.7333333333333343   0.3072500849   F   F   F
0.1333333333333329   0.7333333333333343   0.3072500849   F   F   F
0.3333333333333357   0.7333333333333343   0.3072500849   F   F   F
0.5333333333333314   0.7333333333333343   0.3072500849   F   F   F
0.7333333333333343   0.7333333333333343   0.3072500849   F   F   F
0.9333333333333300   0.9333333333333371   0.3072500849   F   F   F
0.1333333333333329   0.9333333333333371   0.3072500849   F   F   F
0.3333333333333357   0.9333333333333371   0.3072500849   F   F   F
0.5333333333333314   0.9333333333333371   0.3072500849   F   F   F
0.7333333333333343   0.9333333333333371   0.3072500849   F   F   F
0.0000000000000000   0.0000000000000000   0.3790934071   F   F   F
0.2000000000000028   0.0000000000000000   0.3790934071   F   F   F
0.3999999999999986   0.0000000000000000   0.3790934071   F   F   F
0.6000000000000014   0.0000000000000000   0.3790934071   F   F   F
0.7999999999999972   0.0000000000000000   0.3790934071   F   F   F
0.0000000000000000   0.2000000000000028   0.3790934071   F   F   F
0.2000000000000028   0.2000000000000028   0.3790934071   F   F   F
0.3999999999999986   0.2000000000000028   0.3790934071   F   F   F
0.6000000000000014   0.2000000000000028   0.3790934071   F   F   F
0.7999999999999972   0.2000000000000028   0.3790934071   F   F   F
0.0000000000000000   0.3999999999999986   0.3790934071   F   F   F
0.2000000000000028   0.3999999999999986   0.3790934071   F   F   F
0.3999999999999986   0.3999999999999986   0.3790934071   F   F   F
0.6000000000000014   0.3999999999999986   0.3790934071   F   F   F
0.7999999999999972   0.3999999999999986   0.3790934071   F   F   F
0.0000000000000000   0.6000000000000014   0.3790934071   F   F   F
0.2000000000000028   0.6000000000000014   0.3790934071   F   F   F
0.3999999999999986   0.6000000000000014   0.3790934071   F   F   F
0.6000000000000014   0.6000000000000014   0.3790934071   F   F   F
0.7999999999999972   0.6000000000000014   0.3790934071   F   F   F
0.0000000000000000   0.7999999999999972   0.3790934071   F   F   F
0.2000000000000028   0.7999999999999972   0.3790934071   F   F   F
0.3999999999999986   0.7999999999999972   0.3790934071   F   F   F
0.6000000000000014   0.7999999999999972   0.3790934071   F   F   F
0.7999999999999972   0.7999999999999972   0.3790934071   F   F   F
0.0666666666666700   0.0666666666666700   0.4509367294   F   F   F
0.2666666666666657   0.0666666666666700   0.4509367294   F   F   F
0.4666666666666686   0.0666666666666700   0.4509367294   F   F   F
0.6666666666666643   0.0666666666666700   0.4509367294   F   F   F
0.8666666666666671   0.0666666666666700   0.4509367294   F   F   F
0.0666666666666700   0.2666666666666657   0.4509367294   F   F   F
0.2666666666666657   0.2666666666666657   0.4509367294   F   F   F
0.4666666666666686   0.2666666666666657   0.4509367294   F   F   F
0.6666666666666643   0.2666666666666657   0.4509367294   F   F   F
0.8666666666666671   0.2666666666666657   0.4509367294   F   F   F
0.0666666666666700   0.4666666666666686   0.4509367294   F   F   F
0.2666666666666657   0.4666666666666686   0.4509367294   F   F   F
0.4666666666666686   0.4666666666666686   0.4509367294   F   F   F
0.6666666666666643   0.4666666666666686   0.4509367294   F   F   F
0.8666666666666671   0.4666666666666686   0.4509367294   F   F   F
0.0666666666666700   0.6666666666666643   0.4509367294   F   F   F
0.2666666666666657   0.6666666666666643   0.4509367294   F   F   F
0.4666666666666686   0.6666666666666643   0.4509367294   F   F   F
0.6666666666666643   0.6666666666666643   0.4509367294   F   F   F
0.8666666666666671   0.6666666666666643   0.4509367294   F   F   F
0.0666666666666700   0.8666666666666671   0.4509367294   F   F   F
0.2666666666666657   0.8666666666666671   0.4509367294   F   F   F
0.4666666666666686   0.8666666666666671   0.4509367294   F   F   F
0.6666666666666643   0.8666666666666671   0.4509367294   F   F   F
0.8666666666666671   0.8666666666666671   0.4509367294   F   F   F
0.9356166902667431   0.1313914488103415   0.5233026729   T   T   T
0.1333420600222623   0.1316600448859195   0.5243509531   T   T   T
0.3329103497394476   0.1303975029932350   0.5221555599   T   T   T
0.5341799981125104   0.1317010986663418   0.5220698403   T   T   T
0.7364154285043095   0.1319946532545523   0.5223259898   T   T   T
0.9338557471032864   0.3286196066451375   0.5224099386   T   T   T
0.1329638288508032   0.3322720949430522   0.5230302602   T   T   T
0.3334877395470927   0.3320477301758603   0.5237851284   T   T   T
0.5289519855612982   0.3371357651122233   0.5254787787   T   T   T
0.7314676483199617   0.3322202980024979   0.5229709962   T   T   T
0.9320192528282407   0.5319937221965081   0.5232726568   T   T   T
0.1314784570844318   0.5342322553006396   0.5226775479   T   T   T
0.3326751512314331   0.5324776030265780   0.5233560929   T   T   T
0.5349418791331723   0.5323413166230671   0.5222501621   T   T   T
0.7341136736047068   0.5318247466301881   0.5236669641   T   T   T
0.9322592657420905   0.7345521926025931   0.5232254341   T   T   T
0.1312570652667082   0.7337872856443771   0.5222606743   T   T   T
0.3316067837197471   0.7334190425072933   0.5222173543   T   T   T
0.5341260109678490   0.7320060771346401   0.5232042426   T   T   T
0.7339243641675399   0.7316526002707622   0.5242829583   T   T   T
0.9330913493714739   0.9355550441907355   0.5228523634   T   T   T
0.1328458244189501   0.9329734405926645   0.5235442045   T   T   T
0.3305498051168554   0.9330215515374304   0.5221594193   T   T   T
0.5341324594254687   0.9306168657600256   0.5237248316   T   T   T
0.7335191618912786   0.9312838983035241   0.5231017307   T   T   T
-0.0019794938499358   0.0003530747774596   0.5966620078   T   T   T
0.2024716114168055   -0.0027937273529623   0.5968940807   T   T   T
0.4020863958018787   -0.0043897711650309   0.5947483306   T   T   T
0.5989729865044330   -0.0002679699829417   0.5964312552   T   T   T
0.7990623204997865   -0.0038489860504291   0.5953201480   T   T   T
-0.0018309747614637   0.1991665693168040   0.5963610853   T   T   T
0.1995611508557601   0.1960734206132616   0.5956945311   T   T   T
0.3995788655869082   0.1935346915354049   0.5945341189   T   T   T
0.6044527620486312   0.1928830761316762   0.5920739222   T   T   T
0.8016386132117731   0.1967272516171196   0.5958790888   T   T   T
-0.0032260937524548   0.3962190843343814   0.5953285136   T   T   T
0.1959146222484753   0.3975733677210804   0.5947524196   T   T   T
0.3892189090430982   0.3982997103065100   0.6016408838   T   T   T
0.6013611936298425   0.3946232399648995   0.6004439222   T   T   T
0.7956392089835662   0.3999927502760547   0.5947161030   T   T   T
-0.0002335937795309   0.5979370283507401   0.5956450980   T   T   T
0.1965284880464288   0.6016601807366959   0.5944522746   T   T   T
0.3981823883694517   0.6013612913160302   0.5923827718   T   T   T
0.5983061260092931   0.5963988053138233   0.5960639548   T   T   T
0.8011291647547175   0.5968346412918099   0.5969231221   T   T   T
-0.0012903933891176   0.8017720893117507   0.5946431713   T   T   T
0.1986408429435114   0.8010883628455254   0.5947276111   T   T   T
0.4008057126391159   0.7995223112309923   0.5943612869   T   T   T
0.6018967745064766   0.7960858264959805   0.5972514932   T   T   T
0.8011628640896272   0.7970364492400981   0.5970872744   T   T   T
0.4677455936089126   0.3798655232116657   0.6596202729   T   T   T
0.5601239858974194   0.3768327508653941   0.6616088740   T   T   T
0.4343095750934785   0.3735241643112400   0.6927499151   T   T   T
 
  0.00000000E+00  0.00000000E+00  0.00000000E+00
  0.00000000E+00  0.00000000E+00  0.00000000E+00
  0.00000000E+00  0.00000000E+00  0.00000000E+00
  0.00000000E+00  0.00000000E+00  0.00000000E+00
  0.00000000E+00  0.00000000E+00  0.00000000E+00
  0.00000000E+00  0.00000000E+00  0.00000000E+00
  0.00000000E+00  0.00000000E+00  0.00000000E+00
  0.00000000E+00  0.00000000E+00  0.00000000E+00
  0.00000000E+00  0.00000000E+00  0.00000000E+00
  0.00000000E+00  0.00000000E+00  0.00000000E+00
  0.00000000E+00  0.00000000E+00  0.00000000E+00
  0.00000000E+00  0.00000000E+00  0.00000000E+00
  0.00000000E+00  0.00000000E+00  0.00000000E+00
  0.00000000E+00  0.00000000E+00  0.00000000E+00
  0.00000000E+00  0.00000000E+00  0.00000000E+00
  0.00000000E+00  0.00000000E+00  0.00000000E+00
  0.00000000E+00  0.00000000E+00  0.00000000E+00
  0.00000000E+00  0.00000000E+00  0.00000000E+00
  0.00000000E+00  0.00000000E+00  0.00000000E+00
  0.00000000E+00  0.00000000E+00  0.00000000E+00
  0.00000000E+00  0.00000000E+00  0.00000000E+00
  0.00000000E+00  0.00000000E+00  0.00000000E+00
  0.00000000E+00  0.00000000E+00  0.00000000E+00
  0.00000000E+00  0.00000000E+00  0.00000000E+00
  0.00000000E+00  0.00000000E+00  0.00000000E+00
  0.00000000E+00  0.00000000E+00  0.00000000E+00
  0.00000000E+00  0.00000000E+00  0.00000000E+00
  0.00000000E+00  0.00000000E+00  0.00000000E+00
  0.00000000E+00  0.00000000E+00  0.00000000E+00
  0.00000000E+00  0.00000000E+00  0.00000000E+00
  0.00000000E+00  0.00000000E+00  0.00000000E+00
  0.00000000E+00  0.00000000E+00  0.00000000E+00
  0.00000000E+00  0.00000000E+00  0.00000000E+00
  0.00000000E+00  0.00000000E+00  0.00000000E+00
  0.00000000E+00  0.00000000E+00  0.00000000E+00
  0.00000000E+00  0.00000000E+00  0.00000000E+00
  0.00000000E+00  0.00000000E+00  0.00000000E+00
  0.00000000E+00  0.00000000E+00  0.00000000E+00
  0.00000000E+00  0.00000000E+00  0.00000000E+00
  0.00000000E+00  0.00000000E+00  0.00000000E+00
  0.00000000E+00  0.00000000E+00  0.00000000E+00
  0.00000000E+00  0.00000000E+00  0.00000000E+00
  0.00000000E+00  0.00000000E+00  0.00000000E+00
  0.00000000E+00  0.00000000E+00  0.00000000E+00
  0.00000000E+00  0.00000000E+00  0.00000000E+00
  0.00000000E+00  0.00000000E+00  0.00000000E+00
  0.00000000E+00  0.00000000E+00  0.00000000E+00
  0.00000000E+00  0.00000000E+00  0.00000000E+00
  0.00000000E+00  0.00000000E+00  0.00000000E+00
  0.00000000E+00  0.00000000E+00  0.00000000E+00
  0.00000000E+00  0.00000000E+00  0.00000000E+00
  0.00000000E+00  0.00000000E+00  0.00000000E+00
  0.00000000E+00  0.00000000E+00  0.00000000E+00
  0.00000000E+00  0.00000000E+00  0.00000000E+00
  0.00000000E+00  0.00000000E+00  0.00000000E+00
  0.00000000E+00  0.00000000E+00  0.00000000E+00
  0.00000000E+00  0.00000000E+00  0.00000000E+00
  0.00000000E+00  0.00000000E+00  0.00000000E+00
  0.00000000E+00  0.00000000E+00  0.00000000E+00
  0.00000000E+00  0.00000000E+00  0.00000000E+00
  0.00000000E+00  0.00000000E+00  0.00000000E+00
  0.00000000E+00  0.00000000E+00  0.00000000E+00
  0.00000000E+00  0.00000000E+00  0.00000000E+00
  0.00000000E+00  0.00000000E+00  0.00000000E+00
  0.00000000E+00  0.00000000E+00  0.00000000E+00
  0.00000000E+00  0.00000000E+00  0.00000000E+00
  0.00000000E+00  0.00000000E+00  0.00000000E+00
  0.00000000E+00  0.00000000E+00  0.00000000E+00
  0.00000000E+00  0.00000000E+00  0.00000000E+00
  0.00000000E+00  0.00000000E+00  0.00000000E+00
  0.00000000E+00  0.00000000E+00  0.00000000E+00
  0.00000000E+00  0.00000000E+00  0.00000000E+00
  0.00000000E+00  0.00000000E+00  0.00000000E+00
  0.00000000E+00  0.00000000E+00  0.00000000E+00
  0.00000000E+00  0.00000000E+00  0.00000000E+00
  0.00000000E+00  0.00000000E+00  0.00000000E+00
  0.00000000E+00  0.00000000E+00  0.00000000E+00
  0.00000000E+00  0.00000000E+00  0.00000000E+00
  0.00000000E+00  0.00000000E+00  0.00000000E+00
  0.00000000E+00  0.00000000E+00  0.00000000E+00
  0.00000000E+00  0.00000000E+00  0.00000000E+00
  0.00000000E+00  0.00000000E+00  0.00000000E+00
  0.00000000E+00  0.00000000E+00  0.00000000E+00
  0.00000000E+00  0.00000000E+00  0.00000000E+00
  0.00000000E+00  0.00000000E+00  0.00000000E+00
  0.00000000E+00  0.00000000E+00  0.00000000E+00
  0.00000000E+00  0.00000000E+00  0.00000000E+00
  0.00000000E+00  0.00000000E+00  0.00000000E+00
  0.00000000E+00  0.00000000E+00  0.00000000E+00
  0.00000000E+00  0.00000000E+00  0.00000000E+00
  0.00000000E+00  0.00000000E+00  0.00000000E+00
  0.00000000E+00  0.00000000E+00  0.00000000E+00
  0.00000000E+00  0.00000000E+00  0.00000000E+00
  0.00000000E+00  0.00000000E+00  0.00000000E+00
  0.00000000E+00  0.00000000E+00  0.00000000E+00
  0.00000000E+00  0.00000000E+00  0.00000000E+00
  0.00000000E+00  0.00000000E+00  0.00000000E+00
  0.00000000E+00  0.00000000E+00  0.00000000E+00
  0.00000000E+00  0.00000000E+00  0.00000000E+00
  0.00000000E+00  0.00000000E+00  0.00000000E+00
  0.00000000E+00  0.00000000E+00  0.00000000E+00
  0.00000000E+00  0.00000000E+00  0.00000000E+00
  0.00000000E+00  0.00000000E+00  0.00000000E+00
  0.00000000E+00  0.00000000E+00  0.00000000E+00
  0.00000000E+00  0.00000000E+00  0.00000000E+00
  0.00000000E+00  0.00000000E+00  0.00000000E+00
  0.00000000E+00  0.00000000E+00  0.00000000E+00
  0.00000000E+00  0.00000000E+00  0.00000000E+00
  0.00000000E+00  0.00000000E+00  0.00000000E+00
  0.00000000E+00  0.00000000E+00  0.00000000E+00
  0.00000000E+00  0.00000000E+00  0.00000000E+00
  0.00000000E+00  0.00000000E+00  0.00000000E+00
  0.00000000E+00  0.00000000E+00  0.00000000E+00
  0.00000000E+00  0.00000000E+00  0.00000000E+00
  0.00000000E+00  0.00000000E+00  0.00000000E+00
  0.00000000E+00  0.00000000E+00  0.00000000E+00
  0.00000000E+00  0.00000000E+00  0.00000000E+00
  0.00000000E+00  0.00000000E+00  0.00000000E+00
  0.00000000E+00  0.00000000E+00  0.00000000E+00
  0.00000000E+00  0.00000000E+00  0.00000000E+00
  0.00000000E+00  0.00000000E+00  0.00000000E+00
  0.00000000E+00  0.00000000E+00  0.00000000E+00
  0.00000000E+00  0.00000000E+00  0.00000000E+00
  0.00000000E+00  0.00000000E+00  0.00000000E+00
  0.00000000E+00  0.00000000E+00  0.00000000E+00
  0.00000000E+00  0.00000000E+00  0.00000000E+00
  0.00000000E+00  0.00000000E+00  0.00000000E+00
  0.00000000E+00  0.00000000E+00  0.00000000E+00
