C  H 
 1.0000000000000000
    14.3189123190275875    0.0000000000000000    0.0000000000000000
     7.1594561595137938   12.4005418228398376    0.0000000000000000
   0.0000000000   0.0000000000   28.1872083909
 C   H  
   6  14
Cartesian
10.7384058103619022   5.7743633229294034   12.1731693920
10.7400693675873402   5.7730977909032006   17.2789812695
10.7399347938103933   5.7963675605667913   14.7323453532
10.7404873458589130   6.6356719453263295   16.0140269369
10.7387066781346192   6.6245798016663358   13.4458588685
10.7378538203475973   6.6118021342706168   10.8925610029
10.7377641690046559   5.9805137191112436   10.0000000000
10.7395923921881149   6.3792923696330170   18.1872083909
11.6238049635083094   5.1286381040823326   17.3120354124
9.8566082566346314   5.1282260386244332   17.3105853668
9.8648327581170392   7.2959736873005010   16.0144629250
11.6163810710778233   7.2954682524345422   16.0142459696
11.6171008086709566   5.1356890995530531   14.7385073818
9.8629726016315633   5.1349518952926569   14.7397581301
9.8613904779151529   5.1154607509429511   12.1797973055
11.6205902004470545   7.2562737696909831   10.8444808344
9.8551413106573058   7.2561464725038505   10.8448649888
9.8606817436018286   7.2833556290554231   13.4411198968
11.6162499508356358   7.2841890251851389   13.4399617279
11.6151162650229374   5.1153568593255834   12.1791398855
