Al Fe Al Fe Al  O  C                    
   1.00000000000000     
    14.3189123190275875    0.0000000000000000    0.0000000000000000
     7.1594561595137938   12.4005418228398376    0.0000000000000000
   0.0000000000   0.0000000000   31.6983801736
   Al   Fe   Al   Fe   Al   O    C 
   111     2     3     1     8     1     1
Selective dynamics
Direct
0.9333333333333300   0.1333333333333329   0.3154735335   F   F   F
0.1333333333333329   0.1333333333333329   0.3154735335   F   F   F
0.3333333333333357   0.1333333333333329   0.3154735335   F   F   F
0.5333333333333314   0.1333333333333329   0.3154735335   F   F   F
0.7333333333333343   0.1333333333333329   0.3154735335   F   F   F
0.9333333333333300   0.3333333333333357   0.3154735335   F   F   F
0.1333333333333329   0.3333333333333357   0.3154735335   F   F   F
0.3333333333333357   0.3333333333333357   0.3154735335   F   F   F
0.5333333333333314   0.3333333333333357   0.3154735335   F   F   F
0.7333333333333343   0.3333333333333357   0.3154735335   F   F   F
0.9333333333333300   0.5333333333333314   0.3154735335   F   F   F
0.1333333333333329   0.5333333333333314   0.3154735335   F   F   F
0.3333333333333357   0.5333333333333314   0.3154735335   F   F   F
0.5333333333333314   0.5333333333333314   0.3154735335   F   F   F
0.7333333333333343   0.5333333333333314   0.3154735335   F   F   F
0.9333333333333300   0.7333333333333343   0.3154735335   F   F   F
0.1333333333333329   0.7333333333333343   0.3154735335   F   F   F
0.3333333333333357   0.7333333333333343   0.3154735335   F   F   F
0.5333333333333314   0.7333333333333343   0.3154735335   F   F   F
0.7333333333333343   0.7333333333333343   0.3154735335   F   F   F
0.9333333333333300   0.9333333333333371   0.3154735335   F   F   F
0.1333333333333329   0.9333333333333371   0.3154735335   F   F   F
0.3333333333333357   0.9333333333333371   0.3154735335   F   F   F
0.5333333333333314   0.9333333333333371   0.3154735335   F   F   F
0.7333333333333343   0.9333333333333371   0.3154735335   F   F   F
0.0000000000000000   0.0000000000000000   0.3892397190   F   F   F
0.2000000000000028   0.0000000000000000   0.3892397190   F   F   F
0.3999999999999986   0.0000000000000000   0.3892397190   F   F   F
0.6000000000000014   0.0000000000000000   0.3892397190   F   F   F
0.7999999999999972   0.0000000000000000   0.3892397190   F   F   F
0.0000000000000000   0.2000000000000028   0.3892397190   F   F   F
0.2000000000000028   0.2000000000000028   0.3892397190   F   F   F
0.3999999999999986   0.2000000000000028   0.3892397190   F   F   F
0.6000000000000014   0.2000000000000028   0.3892397190   F   F   F
0.7999999999999972   0.2000000000000028   0.3892397190   F   F   F
0.0000000000000000   0.3999999999999986   0.3892397190   F   F   F
0.2000000000000028   0.3999999999999986   0.3892397190   F   F   F
0.3999999999999986   0.3999999999999986   0.3892397190   F   F   F
0.6000000000000014   0.3999999999999986   0.3892397190   F   F   F
0.7999999999999972   0.3999999999999986   0.3892397190   F   F   F
0.0000000000000000   0.6000000000000014   0.3892397190   F   F   F
0.2000000000000028   0.6000000000000014   0.3892397190   F   F   F
0.3999999999999986   0.6000000000000014   0.3892397190   F   F   F
0.6000000000000014   0.6000000000000014   0.3892397190   F   F   F
0.7999999999999972   0.6000000000000014   0.3892397190   F   F   F
0.0000000000000000   0.7999999999999972   0.3892397190   F   F   F
0.2000000000000028   0.7999999999999972   0.3892397190   F   F   F
0.3999999999999986   0.7999999999999972   0.3892397190   F   F   F
0.6000000000000014   0.7999999999999972   0.3892397190   F   F   F
0.7999999999999972   0.7999999999999972   0.3892397190   F   F   F
0.0666666666666700   0.0666666666666700   0.4630059044   F   F   F
0.2666666666666657   0.0666666666666700   0.4630059044   F   F   F
0.4666666666666686   0.0666666666666700   0.4630059044   F   F   F
0.6666666666666643   0.0666666666666700   0.4630059044   F   F   F
0.8666666666666671   0.0666666666666700   0.4630059044   F   F   F
0.0666666666666700   0.2666666666666657   0.4630059044   F   F   F
0.2666666666666657   0.2666666666666657   0.4630059044   F   F   F
0.4666666666666686   0.2666666666666657   0.4630059044   F   F   F
0.6666666666666643   0.2666666666666657   0.4630059044   F   F   F
0.8666666666666671   0.2666666666666657   0.4630059044   F   F   F
0.0666666666666700   0.4666666666666686   0.4630059044   F   F   F
0.2666666666666657   0.4666666666666686   0.4630059044   F   F   F
0.4666666666666686   0.4666666666666686   0.4630059044   F   F   F
0.6666666666666643   0.4666666666666686   0.4630059044   F   F   F
0.8666666666666671   0.4666666666666686   0.4630059044   F   F   F
0.0666666666666700   0.6666666666666643   0.4630059044   F   F   F
0.2666666666666657   0.6666666666666643   0.4630059044   F   F   F
0.4666666666666686   0.6666666666666643   0.4630059044   F   F   F
0.6666666666666643   0.6666666666666643   0.4630059044   F   F   F
0.8666666666666671   0.6666666666666643   0.4630059044   F   F   F
0.0666666666666700   0.8666666666666671   0.4630059044   F   F   F
0.2666666666666657   0.8666666666666671   0.4630059044   F   F   F
0.4666666666666686   0.8666666666666671   0.4630059044   F   F   F
0.6666666666666643   0.8666666666666671   0.4630059044   F   F   F
0.8666666666666671   0.8666666666666671   0.4630059044   F   F   F
0.9340586352664293   0.1339657838105764   0.5368689485   T   T   T
0.1352845833041383   0.1347514049530863   0.5369153555   T   T   T
0.3359411768491309   0.1322123011659694   0.5353983434   T   T   T
0.5316375581475473   0.1329131656407764   0.5359160913   T   T   T
0.7312855524230556   0.1342814470118079   0.5366868150   T   T   T
0.9347206785845508   0.3352951296823659   0.5369032336   T   T   T
0.1349881657949998   0.3350697901991804   0.5352833726   T   T   T
0.3304976115747291   0.3375251823384909   0.5366956700   T   T   T
0.5316309582414380   0.3346584458109386   0.5348750135   T   T   T
0.7316100572062622   0.3347083686650617   0.5366143665   T   T   T
0.9320855214494224   0.5360221167599568   0.5353923333   T   T   T
0.1373968321530633   0.5305864290222124   0.5366828571   T   T   T
0.3325394990769328   0.5325848564969062   0.5359783528   T   T   T
0.5324801744675465   0.5357778767257725   0.5357860521   T   T   T
0.7329956786961379   0.5341689649760044   0.5368307938   T   T   T
0.9328218637202003   0.7316908578903665   0.5359045839   T   T   T
0.1346108423613206   0.7316619068931505   0.5349049281   T   T   T
0.3358221985517509   0.7324973724178609   0.5357912135   T   T   T
0.5341222787008189   0.7341531582981649   0.5369330541   T   T   T
0.7323981525484438   0.7339904598330909   0.5369452786   T   T   T
0.9343260316143970   0.9312719517003488   0.5366865611   T   T   T
0.1347513951374815   0.9315610792885379   0.5366273595   T   T   T
0.3341129733020287   0.9330584044527461   0.5368514947   T   T   T
0.5339067584213197   0.9324886139541733   0.5369567737   T   T   T
0.7329136362198816   0.9329753638594154   0.5367355131   T   T   T
0.0016666965553709   0.9973635979586709   0.6103204254   T   T   T
0.2005251470631294   -0.0001162138078306   0.6107000868   T   T   T
0.3971430397365490   0.0076483267031352   0.6105260503   T   T   T
0.5973115259443432   0.0049012313114324   0.6105236517   T   T   T
0.7999995645813444   0.9999685153930716   0.6107146069   T   T   T
0.0024432990627492   0.2024315542109254   0.6105628729   T   T   T
0.2021627442812758   0.2099189212058868   0.6087575963   T   T   T
0.3873807203881450   0.2237501435848418   0.6084463281   T   T   T
0.5887101274344348   0.2086490541523302   0.6090240647   T   T   T
0.7974243521806930   0.2015970160540650   0.6103007841   T   T   T
0.0098088802054608   0.4022342310276524   0.6087530474   T   T   T
0.1974782773606906   0.3976821537940211   0.6005848911   T   T   T
0.4070035418043329   0.3974750960323463   0.5966180550   T   T   T
0.5903858319057376   0.4021234277440404   0.6088481985   T   T   T
0.7999280461246473   0.4005120097151003   0.6106682974   T   T   T
0.0235151464026128   0.5875397462924944   0.6084538726   T   T   T
0.1974703019540132   0.6069242715062932   0.5966435871   T   T   T
0.3897358269027221   0.5896773905731831   0.6088974930   T   T   T
0.5971798666515309   0.5980923899490805   0.6106546590   T   T   T
0.8074067811969718   0.5972736105010075   0.6105020995   T   T   T
0.0086126039154098   0.7887196405042206   0.6090372976   T   T   T
0.2022457209829093   0.7902538327258478   0.6088848879   T   T   T
0.3981194661050130   0.7972039568011463   0.6106781054   T   T   T
0.5999567140597830   0.8000468833958015   0.6125411442   T   T   T
0.8047932685003608   0.7974050039915653   0.6105288723   T   T   T
0.2494335128292304   0.4495715742117695   0.6845264665   T   T   T
0.2300387560705011   0.4302687994814897   0.6504510036   T   T   T
 
  0.00000000E+00  0.00000000E+00  0.00000000E+00
  0.00000000E+00  0.00000000E+00  0.00000000E+00
  0.00000000E+00  0.00000000E+00  0.00000000E+00
  0.00000000E+00  0.00000000E+00  0.00000000E+00
  0.00000000E+00  0.00000000E+00  0.00000000E+00
  0.00000000E+00  0.00000000E+00  0.00000000E+00
  0.00000000E+00  0.00000000E+00  0.00000000E+00
  0.00000000E+00  0.00000000E+00  0.00000000E+00
  0.00000000E+00  0.00000000E+00  0.00000000E+00
  0.00000000E+00  0.00000000E+00  0.00000000E+00
  0.00000000E+00  0.00000000E+00  0.00000000E+00
  0.00000000E+00  0.00000000E+00  0.00000000E+00
  0.00000000E+00  0.00000000E+00  0.00000000E+00
  0.00000000E+00  0.00000000E+00  0.00000000E+00
  0.00000000E+00  0.00000000E+00  0.00000000E+00
  0.00000000E+00  0.00000000E+00  0.00000000E+00
  0.00000000E+00  0.00000000E+00  0.00000000E+00
  0.00000000E+00  0.00000000E+00  0.00000000E+00
  0.00000000E+00  0.00000000E+00  0.00000000E+00
  0.00000000E+00  0.00000000E+00  0.00000000E+00
  0.00000000E+00  0.00000000E+00  0.00000000E+00
  0.00000000E+00  0.00000000E+00  0.00000000E+00
  0.00000000E+00  0.00000000E+00  0.00000000E+00
  0.00000000E+00  0.00000000E+00  0.00000000E+00
  0.00000000E+00  0.00000000E+00  0.00000000E+00
  0.00000000E+00  0.00000000E+00  0.00000000E+00
  0.00000000E+00  0.00000000E+00  0.00000000E+00
  0.00000000E+00  0.00000000E+00  0.00000000E+00
  0.00000000E+00  0.00000000E+00  0.00000000E+00
  0.00000000E+00  0.00000000E+00  0.00000000E+00
  0.00000000E+00  0.00000000E+00  0.00000000E+00
  0.00000000E+00  0.00000000E+00  0.00000000E+00
  0.00000000E+00  0.00000000E+00  0.00000000E+00
  0.00000000E+00  0.00000000E+00  0.00000000E+00
  0.00000000E+00  0.00000000E+00  0.00000000E+00
  0.00000000E+00  0.00000000E+00  0.00000000E+00
  0.00000000E+00  0.00000000E+00  0.00000000E+00
  0.00000000E+00  0.00000000E+00  0.00000000E+00
  0.00000000E+00  0.00000000E+00  0.00000000E+00
  0.00000000E+00  0.00000000E+00  0.00000000E+00
  0.00000000E+00  0.00000000E+00  0.00000000E+00
  0.00000000E+00  0.00000000E+00  0.00000000E+00
  0.00000000E+00  0.00000000E+00  0.00000000E+00
  0.00000000E+00  0.00000000E+00  0.00000000E+00
  0.00000000E+00  0.00000000E+00  0.00000000E+00
  0.00000000E+00  0.00000000E+00  0.00000000E+00
  0.00000000E+00  0.00000000E+00  0.00000000E+00
  0.00000000E+00  0.00000000E+00  0.00000000E+00
  0.00000000E+00  0.00000000E+00  0.00000000E+00
  0.00000000E+00  0.00000000E+00  0.00000000E+00
  0.00000000E+00  0.00000000E+00  0.00000000E+00
  0.00000000E+00  0.00000000E+00  0.00000000E+00
  0.00000000E+00  0.00000000E+00  0.00000000E+00
  0.00000000E+00  0.00000000E+00  0.00000000E+00
  0.00000000E+00  0.00000000E+00  0.00000000E+00
  0.00000000E+00  0.00000000E+00  0.00000000E+00
  0.00000000E+00  0.00000000E+00  0.00000000E+00
  0.00000000E+00  0.00000000E+00  0.00000000E+00
  0.00000000E+00  0.00000000E+00  0.00000000E+00
  0.00000000E+00  0.00000000E+00  0.00000000E+00
  0.00000000E+00  0.00000000E+00  0.00000000E+00
  0.00000000E+00  0.00000000E+00  0.00000000E+00
  0.00000000E+00  0.00000000E+00  0.00000000E+00
  0.00000000E+00  0.00000000E+00  0.00000000E+00
  0.00000000E+00  0.00000000E+00  0.00000000E+00
  0.00000000E+00  0.00000000E+00  0.00000000E+00
  0.00000000E+00  0.00000000E+00  0.00000000E+00
  0.00000000E+00  0.00000000E+00  0.00000000E+00
  0.00000000E+00  0.00000000E+00  0.00000000E+00
  0.00000000E+00  0.00000000E+00  0.00000000E+00
  0.00000000E+00  0.00000000E+00  0.00000000E+00
  0.00000000E+00  0.00000000E+00  0.00000000E+00
  0.00000000E+00  0.00000000E+00  0.00000000E+00
  0.00000000E+00  0.00000000E+00  0.00000000E+00
  0.00000000E+00  0.00000000E+00  0.00000000E+00
  0.00000000E+00  0.00000000E+00  0.00000000E+00
  0.00000000E+00  0.00000000E+00  0.00000000E+00
  0.00000000E+00  0.00000000E+00  0.00000000E+00
  0.00000000E+00  0.00000000E+00  0.00000000E+00
  0.00000000E+00  0.00000000E+00  0.00000000E+00
  0.00000000E+00  0.00000000E+00  0.00000000E+00
  0.00000000E+00  0.00000000E+00  0.00000000E+00
  0.00000000E+00  0.00000000E+00  0.00000000E+00
  0.00000000E+00  0.00000000E+00  0.00000000E+00
  0.00000000E+00  0.00000000E+00  0.00000000E+00
  0.00000000E+00  0.00000000E+00  0.00000000E+00
  0.00000000E+00  0.00000000E+00  0.00000000E+00
  0.00000000E+00  0.00000000E+00  0.00000000E+00
  0.00000000E+00  0.00000000E+00  0.00000000E+00
  0.00000000E+00  0.00000000E+00  0.00000000E+00
  0.00000000E+00  0.00000000E+00  0.00000000E+00
  0.00000000E+00  0.00000000E+00  0.00000000E+00
  0.00000000E+00  0.00000000E+00  0.00000000E+00
  0.00000000E+00  0.00000000E+00  0.00000000E+00
  0.00000000E+00  0.00000000E+00  0.00000000E+00
  0.00000000E+00  0.00000000E+00  0.00000000E+00
  0.00000000E+00  0.00000000E+00  0.00000000E+00
  0.00000000E+00  0.00000000E+00  0.00000000E+00
  0.00000000E+00  0.00000000E+00  0.00000000E+00
  0.00000000E+00  0.00000000E+00  0.00000000E+00
  0.00000000E+00  0.00000000E+00  0.00000000E+00
  0.00000000E+00  0.00000000E+00  0.00000000E+00
  0.00000000E+00  0.00000000E+00  0.00000000E+00
  0.00000000E+00  0.00000000E+00  0.00000000E+00
  0.00000000E+00  0.00000000E+00  0.00000000E+00
  0.00000000E+00  0.00000000E+00  0.00000000E+00
  0.00000000E+00  0.00000000E+00  0.00000000E+00
  0.00000000E+00  0.00000000E+00  0.00000000E+00
  0.00000000E+00  0.00000000E+00  0.00000000E+00
  0.00000000E+00  0.00000000E+00  0.00000000E+00
  0.00000000E+00  0.00000000E+00  0.00000000E+00
  0.00000000E+00  0.00000000E+00  0.00000000E+00
  0.00000000E+00  0.00000000E+00  0.00000000E+00
  0.00000000E+00  0.00000000E+00  0.00000000E+00
  0.00000000E+00  0.00000000E+00  0.00000000E+00
  0.00000000E+00  0.00000000E+00  0.00000000E+00
  0.00000000E+00  0.00000000E+00  0.00000000E+00
  0.00000000E+00  0.00000000E+00  0.00000000E+00
  0.00000000E+00  0.00000000E+00  0.00000000E+00
  0.00000000E+00  0.00000000E+00  0.00000000E+00
  0.00000000E+00  0.00000000E+00  0.00000000E+00
  0.00000000E+00  0.00000000E+00  0.00000000E+00
  0.00000000E+00  0.00000000E+00  0.00000000E+00
  0.00000000E+00  0.00000000E+00  0.00000000E+00
  0.00000000E+00  0.00000000E+00  0.00000000E+00
  0.00000000E+00  0.00000000E+00  0.00000000E+00
  0.00000000E+00  0.00000000E+00  0.00000000E+00
