Al Fe Al  C  H  C  H                    
   1.00000000000000     
    14.3189123190275875    0.0000000000000000    0.0000000000000000
     7.1594561595137938   12.4005418228398376    0.0000000000000000
   0.0000000000   0.0000000000   34.0141857913
   Al   Fe   Al   C    H    C    H 
   112     1    12     2     3     1     3
Selective dynamics
Direct
0.9333333333333300   0.1333333333333329   0.2939949838   F   F   F
0.1333333333333329   0.1333333333333329   0.2939949838   F   F   F
0.3333333333333357   0.1333333333333329   0.2939949838   F   F   F
0.5333333333333314   0.1333333333333329   0.2939949838   F   F   F
0.7333333333333343   0.1333333333333329   0.2939949838   F   F   F
0.9333333333333300   0.3333333333333357   0.2939949838   F   F   F
0.1333333333333329   0.3333333333333357   0.2939949838   F   F   F
0.3333333333333357   0.3333333333333357   0.2939949838   F   F   F
0.5333333333333314   0.3333333333333357   0.2939949838   F   F   F
0.7333333333333343   0.3333333333333357   0.2939949838   F   F   F
0.9333333333333300   0.5333333333333314   0.2939949838   F   F   F
0.1333333333333329   0.5333333333333314   0.2939949838   F   F   F
0.3333333333333357   0.5333333333333314   0.2939949838   F   F   F
0.5333333333333314   0.5333333333333314   0.2939949838   F   F   F
0.7333333333333343   0.5333333333333314   0.2939949838   F   F   F
0.9333333333333300   0.7333333333333343   0.2939949838   F   F   F
0.1333333333333329   0.7333333333333343   0.2939949838   F   F   F
0.3333333333333357   0.7333333333333343   0.2939949838   F   F   F
0.5333333333333314   0.7333333333333343   0.2939949838   F   F   F
0.7333333333333343   0.7333333333333343   0.2939949838   F   F   F
0.9333333333333300   0.9333333333333371   0.2939949838   F   F   F
0.1333333333333329   0.9333333333333371   0.2939949838   F   F   F
0.3333333333333357   0.9333333333333371   0.2939949838   F   F   F
0.5333333333333314   0.9333333333333371   0.2939949838   F   F   F
0.7333333333333343   0.9333333333333371   0.2939949838   F   F   F
0.0000000000000000   0.0000000000000000   0.3627389074   F   F   F
0.2000000000000028   0.0000000000000000   0.3627389074   F   F   F
0.3999999999999986   0.0000000000000000   0.3627389074   F   F   F
0.6000000000000014   0.0000000000000000   0.3627389074   F   F   F
0.7999999999999972   0.0000000000000000   0.3627389074   F   F   F
0.0000000000000000   0.2000000000000028   0.3627389074   F   F   F
0.2000000000000028   0.2000000000000028   0.3627389074   F   F   F
0.3999999999999986   0.2000000000000028   0.3627389074   F   F   F
0.6000000000000014   0.2000000000000028   0.3627389074   F   F   F
0.7999999999999972   0.2000000000000028   0.3627389074   F   F   F
0.0000000000000000   0.3999999999999986   0.3627389074   F   F   F
0.2000000000000028   0.3999999999999986   0.3627389074   F   F   F
0.3999999999999986   0.3999999999999986   0.3627389074   F   F   F
0.6000000000000014   0.3999999999999986   0.3627389074   F   F   F
0.7999999999999972   0.3999999999999986   0.3627389074   F   F   F
0.0000000000000000   0.6000000000000014   0.3627389074   F   F   F
0.2000000000000028   0.6000000000000014   0.3627389074   F   F   F
0.3999999999999986   0.6000000000000014   0.3627389074   F   F   F
0.6000000000000014   0.6000000000000014   0.3627389074   F   F   F
0.7999999999999972   0.6000000000000014   0.3627389074   F   F   F
0.0000000000000000   0.7999999999999972   0.3627389074   F   F   F
0.2000000000000028   0.7999999999999972   0.3627389074   F   F   F
0.3999999999999986   0.7999999999999972   0.3627389074   F   F   F
0.6000000000000014   0.7999999999999972   0.3627389074   F   F   F
0.7999999999999972   0.7999999999999972   0.3627389074   F   F   F
0.0666666666666700   0.0666666666666700   0.4314828310   F   F   F
0.2666666666666657   0.0666666666666700   0.4314828310   F   F   F
0.4666666666666686   0.0666666666666700   0.4314828310   F   F   F
0.6666666666666643   0.0666666666666700   0.4314828310   F   F   F
0.8666666666666671   0.0666666666666700   0.4314828310   F   F   F
0.0666666666666700   0.2666666666666657   0.4314828310   F   F   F
0.2666666666666657   0.2666666666666657   0.4314828310   F   F   F
0.4666666666666686   0.2666666666666657   0.4314828310   F   F   F
0.6666666666666643   0.2666666666666657   0.4314828310   F   F   F
0.8666666666666671   0.2666666666666657   0.4314828310   F   F   F
0.0666666666666700   0.4666666666666686   0.4314828310   F   F   F
0.2666666666666657   0.4666666666666686   0.4314828310   F   F   F
0.4666666666666686   0.4666666666666686   0.4314828310   F   F   F
0.6666666666666643   0.4666666666666686   0.4314828310   F   F   F
0.8666666666666671   0.4666666666666686   0.4314828310   F   F   F
0.0666666666666700   0.6666666666666643   0.4314828310   F   F   F
0.2666666666666657   0.6666666666666643   0.4314828310   F   F   F
0.4666666666666686   0.6666666666666643   0.4314828310   F   F   F
0.6666666666666643   0.6666666666666643   0.4314828310   F   F   F
0.8666666666666671   0.6666666666666643   0.4314828310   F   F   F
0.0666666666666700   0.8666666666666671   0.4314828310   F   F   F
0.2666666666666657   0.8666666666666671   0.4314828310   F   F   F
0.4666666666666686   0.8666666666666671   0.4314828310   F   F   F
0.6666666666666643   0.8666666666666671   0.4314828310   F   F   F
0.8666666666666671   0.8666666666666671   0.4314828310   F   F   F
0.9326990767119725   0.1336907432613079   0.5001343539   T   T   T
0.1343188063276537   0.1340644107961494   0.5001586631   T   T   T
0.3345822235882339   0.1350043663634802   0.5004867501   T   T   T
0.5343911294596940   0.1306741645566456   0.4985122661   T   T   T
0.7325503242086618   0.1338939412516002   0.4995673080   T   T   T
0.9335426477036433   0.3329666751332832   0.5000393909   T   T   T
0.1345959563866976   0.3340327792192114   0.5000977597   T   T   T
0.3358279760854473   0.3350107909491739   0.5002059081   T   T   T
0.5293483204468542   0.3353986197912748   0.5002136878   T   T   T
0.7316064129329655   0.3338529317975311   0.5000076523   T   T   T
0.9321770874016185   0.5332370773939198   0.5004566329   T   T   T
0.1304459276860887   0.5347543039666336   0.4984424263   T   T   T
0.3354822485753878   0.5290266900893360   0.5001076983   T   T   T
0.5343493170338558   0.5342508837833485   0.4987346035   T   T   T
0.7332997505729074   0.5330761204400486   0.5004601391   T   T   T
0.9324212122264338   0.7340251595365277   0.5004695147   T   T   T
0.1347465534202675   0.7315444631678683   0.5000003044   T   T   T
0.3343335824573807   0.7305914452489386   0.5004243119   T   T   T
0.5327134539701643   0.7335969427428561   0.5005468367   T   T   T
0.7325599438929398   0.7332597631792651   0.5009914274   T   T   T
0.9338873244353519   0.9331032673631076   0.4999903829   T   T   T
0.1341384090617369   0.9319804144524920   0.5000982028   T   T   T
0.3331174733526985   0.9334123669661043   0.5000933965   T   T   T
0.5329146096345335   0.9328239257431060   0.5006525642   T   T   T
0.7337667414087851   0.9326213650378333   0.5004214537   T   T   T
0.0002869095182017   0.9994605750060032   0.5689630140   T   T   T
0.2000663766881102   0.0005611538370914   0.5689888189   T   T   T
0.3998231390803613   0.0015837089995280   0.5694373339   T   T   T
0.5969242233808981   0.0051526711347702   0.5692650464   T   T   T
0.8000633115753935   0.9996757263329376   0.5689716545   T   T   T
0.0008777644180368   0.2003289532085445   0.5690232277   T   T   T
0.2032668245717215   0.2029550036416130   0.5695624267   T   T   T
0.4012214065931411   0.2108496331641731   0.5683008828   T   T   T
0.5975690939091025   0.2031096857480609   0.5655843651   T   T   T
0.7983314790949867   0.2007603875059521   0.5692314208   T   T   T
0.0007964439536966   0.4002725180825304   0.5692237678   T   T   T
0.2058607150598291   0.4020811500946120   0.5667422978   T   T   T
0.4061899021785167   0.3973858567132875   0.5645565855   T   T   T
0.5944381751595436   0.3985579105343259   0.5670589109   T   T   T
0.7989008844188269   0.3998842128035572   0.5692191481   T   T   T
0.0017917152242279   0.5987906233784563   0.5691670776   T   T   T
0.2051427107294077   0.5937560230984708   0.5664407381   T   T   T
0.3998589023037348   0.5900207888584511   0.5678009403   T   T   T
0.5962543199217423   0.5971832260983440   0.5692806383   T   T   T
0.7985063630637093   0.5996984142591997   0.5704218524   T   T   T
0.0012834554392393   0.7983522672828203   0.5691692340   T   T   T
0.2020436180614506   0.7964355528618364   0.5694807233   T   T   T
0.3995967553374280   0.7990242889517958   0.5694336353   T   T   T
0.5988804103117151   0.8000449140782304   0.5705867256   T   T   T
0.7988915690295008   0.8005006772968493   0.5703797249   T   T   T
0.3410498214118693   0.4385411597514103   0.6515534017   T   T   T
0.4196856602403377   0.3844998985426214   0.6182681369   T   T   T
0.4979737412789312   0.3286078470880424   0.6319013494   T   T   T
0.3301023559152460   0.3758485453639148   0.6661733703   T   T   T
0.2611317112277889   0.4995064256246515   0.6410400290   T   T   T
0.3824843620173860   0.4883770389753018   0.6821427051   T   T   T
0.3242094729250878   0.5253741913059954   0.7060050162   T   T   T
0.3949489173137035   0.5508054771565053   0.6687778585   T   T   T
0.4592374914169606   0.4271529811026385   0.6947366678   T   T   T
 
  0.00000000E+00  0.00000000E+00  0.00000000E+00
  0.00000000E+00  0.00000000E+00  0.00000000E+00
  0.00000000E+00  0.00000000E+00  0.00000000E+00
  0.00000000E+00  0.00000000E+00  0.00000000E+00
  0.00000000E+00  0.00000000E+00  0.00000000E+00
  0.00000000E+00  0.00000000E+00  0.00000000E+00
  0.00000000E+00  0.00000000E+00  0.00000000E+00
  0.00000000E+00  0.00000000E+00  0.00000000E+00
  0.00000000E+00  0.00000000E+00  0.00000000E+00
  0.00000000E+00  0.00000000E+00  0.00000000E+00
  0.00000000E+00  0.00000000E+00  0.00000000E+00
  0.00000000E+00  0.00000000E+00  0.00000000E+00
  0.00000000E+00  0.00000000E+00  0.00000000E+00
  0.00000000E+00  0.00000000E+00  0.00000000E+00
  0.00000000E+00  0.00000000E+00  0.00000000E+00
  0.00000000E+00  0.00000000E+00  0.00000000E+00
  0.00000000E+00  0.00000000E+00  0.00000000E+00
  0.00000000E+00  0.00000000E+00  0.00000000E+00
  0.00000000E+00  0.00000000E+00  0.00000000E+00
  0.00000000E+00  0.00000000E+00  0.00000000E+00
  0.00000000E+00  0.00000000E+00  0.00000000E+00
  0.00000000E+00  0.00000000E+00  0.00000000E+00
  0.00000000E+00  0.00000000E+00  0.00000000E+00
  0.00000000E+00  0.00000000E+00  0.00000000E+00
  0.00000000E+00  0.00000000E+00  0.00000000E+00
  0.00000000E+00  0.00000000E+00  0.00000000E+00
  0.00000000E+00  0.00000000E+00  0.00000000E+00
  0.00000000E+00  0.00000000E+00  0.00000000E+00
  0.00000000E+00  0.00000000E+00  0.00000000E+00
  0.00000000E+00  0.00000000E+00  0.00000000E+00
  0.00000000E+00  0.00000000E+00  0.00000000E+00
  0.00000000E+00  0.00000000E+00  0.00000000E+00
  0.00000000E+00  0.00000000E+00  0.00000000E+00
  0.00000000E+00  0.00000000E+00  0.00000000E+00
  0.00000000E+00  0.00000000E+00  0.00000000E+00
  0.00000000E+00  0.00000000E+00  0.00000000E+00
  0.00000000E+00  0.00000000E+00  0.00000000E+00
  0.00000000E+00  0.00000000E+00  0.00000000E+00
  0.00000000E+00  0.00000000E+00  0.00000000E+00
  0.00000000E+00  0.00000000E+00  0.00000000E+00
  0.00000000E+00  0.00000000E+00  0.00000000E+00
  0.00000000E+00  0.00000000E+00  0.00000000E+00
  0.00000000E+00  0.00000000E+00  0.00000000E+00
  0.00000000E+00  0.00000000E+00  0.00000000E+00
  0.00000000E+00  0.00000000E+00  0.00000000E+00
  0.00000000E+00  0.00000000E+00  0.00000000E+00
  0.00000000E+00  0.00000000E+00  0.00000000E+00
  0.00000000E+00  0.00000000E+00  0.00000000E+00
  0.00000000E+00  0.00000000E+00  0.00000000E+00
  0.00000000E+00  0.00000000E+00  0.00000000E+00
  0.00000000E+00  0.00000000E+00  0.00000000E+00
  0.00000000E+00  0.00000000E+00  0.00000000E+00
  0.00000000E+00  0.00000000E+00  0.00000000E+00
  0.00000000E+00  0.00000000E+00  0.00000000E+00
  0.00000000E+00  0.00000000E+00  0.00000000E+00
  0.00000000E+00  0.00000000E+00  0.00000000E+00
  0.00000000E+00  0.00000000E+00  0.00000000E+00
  0.00000000E+00  0.00000000E+00  0.00000000E+00
  0.00000000E+00  0.00000000E+00  0.00000000E+00
  0.00000000E+00  0.00000000E+00  0.00000000E+00
  0.00000000E+00  0.00000000E+00  0.00000000E+00
  0.00000000E+00  0.00000000E+00  0.00000000E+00
  0.00000000E+00  0.00000000E+00  0.00000000E+00
  0.00000000E+00  0.00000000E+00  0.00000000E+00
  0.00000000E+00  0.00000000E+00  0.00000000E+00
  0.00000000E+00  0.00000000E+00  0.00000000E+00
  0.00000000E+00  0.00000000E+00  0.00000000E+00
  0.00000000E+00  0.00000000E+00  0.00000000E+00
  0.00000000E+00  0.00000000E+00  0.00000000E+00
  0.00000000E+00  0.00000000E+00  0.00000000E+00
  0.00000000E+00  0.00000000E+00  0.00000000E+00
  0.00000000E+00  0.00000000E+00  0.00000000E+00
  0.00000000E+00  0.00000000E+00  0.00000000E+00
  0.00000000E+00  0.00000000E+00  0.00000000E+00
  0.00000000E+00  0.00000000E+00  0.00000000E+00
  0.00000000E+00  0.00000000E+00  0.00000000E+00
  0.00000000E+00  0.00000000E+00  0.00000000E+00
  0.00000000E+00  0.00000000E+00  0.00000000E+00
  0.00000000E+00  0.00000000E+00  0.00000000E+00
  0.00000000E+00  0.00000000E+00  0.00000000E+00
  0.00000000E+00  0.00000000E+00  0.00000000E+00
  0.00000000E+00  0.00000000E+00  0.00000000E+00
  0.00000000E+00  0.00000000E+00  0.00000000E+00
  0.00000000E+00  0.00000000E+00  0.00000000E+00
  0.00000000E+00  0.00000000E+00  0.00000000E+00
  0.00000000E+00  0.00000000E+00  0.00000000E+00
  0.00000000E+00  0.00000000E+00  0.00000000E+00
  0.00000000E+00  0.00000000E+00  0.00000000E+00
  0.00000000E+00  0.00000000E+00  0.00000000E+00
  0.00000000E+00  0.00000000E+00  0.00000000E+00
  0.00000000E+00  0.00000000E+00  0.00000000E+00
  0.00000000E+00  0.00000000E+00  0.00000000E+00
  0.00000000E+00  0.00000000E+00  0.00000000E+00
  0.00000000E+00  0.00000000E+00  0.00000000E+00
  0.00000000E+00  0.00000000E+00  0.00000000E+00
  0.00000000E+00  0.00000000E+00  0.00000000E+00
  0.00000000E+00  0.00000000E+00  0.00000000E+00
  0.00000000E+00  0.00000000E+00  0.00000000E+00
  0.00000000E+00  0.00000000E+00  0.00000000E+00
  0.00000000E+00  0.00000000E+00  0.00000000E+00
  0.00000000E+00  0.00000000E+00  0.00000000E+00
  0.00000000E+00  0.00000000E+00  0.00000000E+00
  0.00000000E+00  0.00000000E+00  0.00000000E+00
  0.00000000E+00  0.00000000E+00  0.00000000E+00
  0.00000000E+00  0.00000000E+00  0.00000000E+00
  0.00000000E+00  0.00000000E+00  0.00000000E+00
  0.00000000E+00  0.00000000E+00  0.00000000E+00
  0.00000000E+00  0.00000000E+00  0.00000000E+00
  0.00000000E+00  0.00000000E+00  0.00000000E+00
  0.00000000E+00  0.00000000E+00  0.00000000E+00
  0.00000000E+00  0.00000000E+00  0.00000000E+00
  0.00000000E+00  0.00000000E+00  0.00000000E+00
  0.00000000E+00  0.00000000E+00  0.00000000E+00
  0.00000000E+00  0.00000000E+00  0.00000000E+00
  0.00000000E+00  0.00000000E+00  0.00000000E+00
  0.00000000E+00  0.00000000E+00  0.00000000E+00
  0.00000000E+00  0.00000000E+00  0.00000000E+00
  0.00000000E+00  0.00000000E+00  0.00000000E+00
  0.00000000E+00  0.00000000E+00  0.00000000E+00
  0.00000000E+00  0.00000000E+00  0.00000000E+00
  0.00000000E+00  0.00000000E+00  0.00000000E+00
  0.00000000E+00  0.00000000E+00  0.00000000E+00
  0.00000000E+00  0.00000000E+00  0.00000000E+00
  0.00000000E+00  0.00000000E+00  0.00000000E+00
  0.00000000E+00  0.00000000E+00  0.00000000E+00
  0.00000000E+00  0.00000000E+00  0.00000000E+00
  0.00000000E+00  0.00000000E+00  0.00000000E+00
  0.00000000E+00  0.00000000E+00  0.00000000E+00
  0.00000000E+00  0.00000000E+00  0.00000000E+00
  0.00000000E+00  0.00000000E+00  0.00000000E+00
  0.00000000E+00  0.00000000E+00  0.00000000E+00
  0.00000000E+00  0.00000000E+00  0.00000000E+00
  0.00000000E+00  0.00000000E+00  0.00000000E+00
  0.00000000E+00  0.00000000E+00  0.00000000E+00
