Al Fe Al 
 1.0000000000000000
    14.3189123190275875    0.0000000000000000    0.0000000000000000
     7.1594561595137938   12.4005418228398376    0.0000000000000000
     0.0000000000000000    0.0000000000000000   39.3530743608719362
 Al  Fe  Al 
 112   1  12
Selective dynamics
Cartesian
 14.3189123190275360  1.6534055763786395 17.9999999999998828   F   F   F
  2.8637824638055078  1.6534055763786395 17.9999999999998828   F   F   F
  5.7275649276110663  1.6534055763786395 17.9999999999998828   F   F   F
  8.5913473914165230  1.6534055763786395 17.9999999999998828   F   F   F
 11.4551298552220793  1.6534055763786395 17.9999999999998828   F   F   F
 15.7508035509303159  4.1335139409466422 17.9999999999998828   F   F   F
  4.2956736957082864  4.1335139409466422 17.9999999999998828   F   F   F
  7.1594561595138444  4.1335139409466422 17.9999999999998828   F   F   F
 10.0232386233193012  4.1335139409466422 17.9999999999998828   F   F   F
 12.8870210871248592  4.1335139409466422 17.9999999999998828   F   F   F
 17.1826947828330425  6.6136223055145562 17.9999999999998828   F   F   F
  5.7275649276110148  6.6136223055145562 17.9999999999998828   F   F   F
  8.5913473914165728  6.6136223055145562 17.9999999999998828   F   F   F
 11.4551298552220295  6.6136223055145562 17.9999999999998828   F   F   F
 14.3189123190275875  6.6136223055145562 17.9999999999998828   F   F   F
 18.6145860147358242  9.0937306700825591 17.9999999999998828   F   F   F
  7.1594561595137938  9.0937306700825591 17.9999999999998828   F   F   F
 10.0232386233193527  9.0937306700825591 17.9999999999998828   F   F   F
 12.8870210871248094  9.0937306700825591 17.9999999999998828   F   F   F
 15.7508035509303657  9.0937306700825591 17.9999999999998828   F   F   F
 20.0464772466386023 11.5738390346505629 17.9999999999998828   F   F   F
  8.5913473914165728 11.5738390346505629 17.9999999999998828   F   F   F
 11.4551298552221308 11.5738390346505629 17.9999999999998828   F   F   F
 14.3189123190275875 11.5738390346505629 17.9999999999998828   F   F   F
 17.1826947828331456 11.5738390346505629 17.9999999999998828   F   F   F
  0.0000000000000000  0.0000000000000000 20.3382685902181279   F   F   F
  2.8637824638055576  0.0000000000000000 20.3382685902181279   F   F   F
  5.7275649276110148  0.0000000000000000 20.3382685902181279   F   F   F
  8.5913473914165728  0.0000000000000000 20.3382685902181279   F   F   F
 11.4551298552220295  0.0000000000000000 20.3382685902181279   F   F   F
  1.4318912319027788  2.4801083645680020 20.3382685902181279   F   F   F
  4.2956736957083361  2.4801083645680020 20.3382685902181279   F   F   F
  7.1594561595137938  2.4801083645680020 20.3382685902181279   F   F   F
 10.0232386233193509  2.4801083645680020 20.3382685902181279   F   F   F
 12.8870210871248077  2.4801083645680020 20.3382685902181279   F   F   F
  2.8637824638055074  4.9602167291359178 20.3382685902181279   F   F   F
  5.7275649276110645  4.9602167291359178 20.3382685902181279   F   F   F
  8.5913473914165213  4.9602167291359178 20.3382685902181279   F   F   F
 11.4551298552220793  4.9602167291359178 20.3382685902181279   F   F   F
 14.3189123190275360  4.9602167291359178 20.3382685902181279   F   F   F
  4.2956736957082864  7.4403250937039198 20.3382685902181279   F   F   F
  7.1594561595138444  7.4403250937039198 20.3382685902181279   F   F   F
 10.0232386233193012  7.4403250937039198 20.3382685902181279   F   F   F
 12.8870210871248592  7.4403250937039198 20.3382685902181279   F   F   F
 15.7508035509303159  7.4403250937039198 20.3382685902181279   F   F   F
  5.7275649276110148  9.9204334582718356 20.3382685902181279   F   F   F
  8.5913473914165728  9.9204334582718356 20.3382685902181279   F   F   F
 11.4551298552220295  9.9204334582718356 20.3382685902181279   F   F   F
 14.3189123190275875  9.9204334582718356 20.3382685902181279   F   F   F
 17.1826947828330425  9.9204334582718356 20.3382685902181279   F   F   F
  1.4318912319028303  0.8267027881893638 22.6765371804360889   F   F   F
  4.2956736957082864  0.8267027881893638 22.6765371804360889   F   F   F
  7.1594561595138453  0.8267027881893638 22.6765371804360889   F   F   F
 10.0232386233193012  0.8267027881893638 22.6765371804360889   F   F   F
 12.8870210871248592  0.8267027881893638 22.6765371804360889   F   F   F
  2.8637824638055585  3.3068111527572781 22.6765371804360889   F   F   F
  5.7275649276110148  3.3068111527572781 22.6765371804360889   F   F   F
  8.5913473914165728  3.3068111527572781 22.6765371804360889   F   F   F
 11.4551298552220295  3.3068111527572781 22.6765371804360889   F   F   F
 14.3189123190275875  3.3068111527572781 22.6765371804360889   F   F   F
  4.2956736957083379  5.7869195173252814 22.6765371804360889   F   F   F
  7.1594561595137947  5.7869195173252814 22.6765371804360889   F   F   F
 10.0232386233193527  5.7869195173252814 22.6765371804360889   F   F   F
 12.8870210871248094  5.7869195173252814 22.6765371804360889   F   F   F
 15.7508035509303674  5.7869195173252814 22.6765371804360889   F   F   F
  5.7275649276110654  8.2670278818931955 22.6765371804360889   F   F   F
  8.5913473914165230  8.2670278818931955 22.6765371804360889   F   F   F
 11.4551298552220810  8.2670278818931955 22.6765371804360889   F   F   F
 14.3189123190275378  8.2670278818931955 22.6765371804360889   F   F   F
 17.1826947828330958  8.2670278818931955 22.6765371804360889   F   F   F
  7.1594561595138453 10.7471362464611992 22.6765371804360889   F   F   F
 10.0232386233193012 10.7471362464611992 22.6765371804360889   F   F   F
 12.8870210871248592 10.7471362464611992 22.6765371804360889   F   F   F
 15.7508035509303159 10.7471362464611992 22.6765371804360889   F   F   F
 18.6145860147358739 10.7471362464611992 22.6765371804360889   F   F   F
 14.3077357404171064  1.6598583119454564 25.0114272434172058   F   F   F
  2.8749587213955246  1.6598581940046571 25.0114274421999880   F   F   F
  5.7478754065492197  1.6667679682495788 25.0128864387632710   F   F   F
  8.5913479607876955  1.6225104352829505 24.9691801580346926   F   F   F
 11.4348192853452524  1.6667690869924225 25.0128867210482895   F   F   F
 15.7508032367196797  4.1298063136057026 25.0144007549114136   F   F   F
  4.3174011123113454  4.1444221418602822 25.0128864433097675   F   F   F
  7.1847595907736519  4.1481228999404154 24.9901177725615895   F   F   F
  9.9979340125804566  4.1481245189944529 24.9901176869088353   F   F   F
 12.8652927466838687  4.1444234779232483 25.0128868741955763   F   F   F
 17.1745200311679618  6.6124105614025597 25.0203796770596725   F   F   F
  5.7008092241084745  6.6290703503866109 24.9691801669642111   F   F   F
  8.5913482129070342  6.5844025913726449 24.9901176356438874   F   F   F
 11.4818854374313979  6.6290696269639104 24.9691798915365801   F   F   F
 14.3270871723356503  6.6124104226271649 25.0203794606856391   F   F   F
 18.6115483034297391  9.1014164651620852 25.0203796720573344   F   F   F
  7.1608740168420963  9.0694594539869247 25.0128867207073924   F   F   F
 10.0218223798695885  9.0694586220389173 25.0128868815156693   F   F   F
 12.8900590045062700  9.1014162444849944 25.0203794647300235   F   F   F
 15.7508035338787291  9.0937306516976513 25.0308170652367821   F   F   F
 20.0496880053397390 11.5756927762749839 25.0144008503691779   F   F   F
  8.5913473330731751 11.5609334684721876 25.0114272585752744   F   F   F
 11.4519188065725253 11.5756925826483670 25.0144007782794731   F   F   F
 14.3137755378573228 11.5673653727242378 25.0203796822755180   F   F   F
 17.1878320236542308 11.5673654135662645 25.0203796747025358   F   F   F
 -0.0035937590672925 -0.0020748572347114 27.3554667501413782   F   F   F
  2.8673760677660538 -0.0020749744307255 27.3554665179240715   F   F   F
  5.7416993352208241  0.0198388722869164 27.3659711221536064   F   F   F
  8.5913479114501641  0.0411354244415456 27.3555730037313047   F   F   F
 11.4409952920035902  0.0198390385621521 27.3659716109818447   F   F   F
  1.4318910514278387  2.4842579924620538 27.3554665086331674   F   F   F
  4.3283122864449082  2.4989522673677089 27.3641407824448812   F   F   F
  7.2204845578223944  2.5736728300383747 27.3146665896785805   F   F   F
  9.9622100149572326  2.5736741986052163 27.3146659103090705   F   F   F
 12.8543834733718789  2.4989517677987072 27.3641405857844795   F   F   F
  2.8880306399683771  4.9625380419315990 27.3659711151067775   F   F   F
  5.8391083792001508  4.9662866147724536 27.3146665836902542   F   F   F
  8.5913481696500327  4.9602171782636804 26.9591261818104861   T   T   T
 11.3435864200306629  4.9662860586234832 27.3146670431522409   F   F   F
 14.2946639278597818  4.9625394863325001 27.3659713986847422   F   F   F
  4.3312982826302466  7.4197578362467933 27.3555730239298462   F   F   F
  7.2099722607811536  7.3406898791243282 27.3146659268714984   F   F   F
  9.9727231191890926  7.3406910268644054 27.3146670549221326   F   F   F
 12.8513957300166251  7.4197567791708590 27.3555729014146678   F   F   F
 15.7508035756767626  7.4372319730773055 27.3941930374535616   F   F   F
  5.7376787613661540  9.8982730497765896 27.3659716251873100   F   F   F
  8.5913474375705974  9.8827467448811266 27.3641405970639902   F   F   F
 11.4450172344572216  9.8982723618868693 27.3659714196854083   F   F   F
 14.3162335984028157  9.9219800404190703 27.3941930408481227   F   F   F
 17.1853738516036962  9.9219802096647598 27.3941928456037616   F   F   F
