Al Fe  C  O  H                          
   1.00000000000000     
    14.3189123190275875    0.0000000000000000    0.0000000000000000
     7.1594561595137938   12.4005418228398376    0.0000000000000000
   0.0000000000   0.0000000000   31.6730406725
   Al   Fe   C    O    H 
   123     2     1     1     1
Selective dynamics
Direct
0.9703452071535708   0.1684617591842823   0.3157259230   F   F   F
0.1703452071535736   0.1684617591842823   0.3157259230   F   F   F
0.3703452071535764   0.1684617591842823   0.3157259230   F   F   F
0.5703452071535722   0.1684617591842823   0.3157259230   F   F   F
0.7703452071535750   0.1684617591842823   0.3157259230   F   F   F
0.9703452071535708   0.3684617591842851   0.3157259230   F   F   F
0.1703452071535736   0.3684617591842851   0.3157259230   F   F   F
0.3703452071535764   0.3684617591842851   0.3157259230   F   F   F
0.5703452071535722   0.3684617591842851   0.3157259230   F   F   F
0.7703452071535750   0.3684617591842851   0.3157259230   F   F   F
0.9703452071535708   0.5684617591842809   0.3157259230   F   F   F
0.1703452071535736   0.5684617591842809   0.3157259230   F   F   F
0.3703452071535764   0.5684617591842809   0.3157259230   F   F   F
0.5703452071535722   0.5684617591842809   0.3157259230   F   F   F
0.7703452071535750   0.5684617591842809   0.3157259230   F   F   F
0.9703452071535708   0.7684617591842837   0.3157259230   F   F   F
0.1703452071535736   0.7684617591842837   0.3157259230   F   F   F
0.3703452071535764   0.7684617591842837   0.3157259230   F   F   F
0.5703452071535722   0.7684617591842837   0.3157259230   F   F   F
0.7703452071535750   0.7684617591842837   0.3157259230   F   F   F
0.9703452071535708   0.9684617591842866   0.3157259230   F   F   F
0.1703452071535736   0.9684617591842866   0.3157259230   F   F   F
0.3703452071535764   0.9684617591842866   0.3157259230   F   F   F
0.5703452071535722   0.9684617591842866   0.3157259230   F   F   F
0.7703452071535750   0.9684617591842866   0.3157259230   F   F   F
0.0370118738202407   0.0351284258509494   0.3895511238   F   F   F
0.2370118738202436   0.0351284258509494   0.3895511238   F   F   F
0.4370118738202393   0.0351284258509494   0.3895511238   F   F   F
0.6370118738202422   0.0351284258509494   0.3895511238   F   F   F
0.8370118738202379   0.0351284258509494   0.3895511238   F   F   F
0.0370118738202407   0.2351284258509523   0.3895511238   F   F   F
0.2370118738202436   0.2351284258509523   0.3895511238   F   F   F
0.4370118738202393   0.2351284258509523   0.3895511238   F   F   F
0.6370118738202422   0.2351284258509523   0.3895511238   F   F   F
0.8370118738202379   0.2351284258509523   0.3895511238   F   F   F
0.0370118738202407   0.4351284258509480   0.3895511238   F   F   F
0.2370118738202436   0.4351284258509480   0.3895511238   F   F   F
0.4370118738202393   0.4351284258509480   0.3895511238   F   F   F
0.6370118738202422   0.4351284258509480   0.3895511238   F   F   F
0.8370118738202379   0.4351284258509480   0.3895511238   F   F   F
0.0370118738202407   0.6351284258509509   0.3895511238   F   F   F
0.2370118738202436   0.6351284258509509   0.3895511238   F   F   F
0.4370118738202393   0.6351284258509509   0.3895511238   F   F   F
0.6370118738202422   0.6351284258509509   0.3895511238   F   F   F
0.8370118738202379   0.6351284258509509   0.3895511238   F   F   F
0.0370118738202407   0.8351284258509466   0.3895511238   F   F   F
0.2370118738202436   0.8351284258509466   0.3895511238   F   F   F
0.4370118738202393   0.8351284258509466   0.3895511238   F   F   F
0.6370118738202422   0.8351284258509466   0.3895511238   F   F   F
0.8370118738202379   0.8351284258509466   0.3895511238   F   F   F
0.1036785404869107   0.1017950925176194   0.4633763247   F   F   F
0.3036785404869065   0.1017950925176194   0.4633763247   F   F   F
0.5036785404869093   0.1017950925176194   0.4633763247   F   F   F
0.7036785404869050   0.1017950925176194   0.4633763247   F   F   F
0.9036785404869079   0.1017950925176194   0.4633763247   F   F   F
0.1036785404869107   0.3017950925176152   0.4633763247   F   F   F
0.3036785404869065   0.3017950925176152   0.4633763247   F   F   F
0.5036785404869093   0.3017950925176152   0.4633763247   F   F   F
0.7036785404869050   0.3017950925176152   0.4633763247   F   F   F
0.9036785404869079   0.3017950925176152   0.4633763247   F   F   F
0.1036785404869107   0.5017950925176180   0.4633763247   F   F   F
0.3036785404869065   0.5017950925176180   0.4633763247   F   F   F
0.5036785404869093   0.5017950925176180   0.4633763247   F   F   F
0.7036785404869050   0.5017950925176180   0.4633763247   F   F   F
0.9036785404869079   0.5017950925176180   0.4633763247   F   F   F
0.1036785404869107   0.7017950925176137   0.4633763247   F   F   F
0.3036785404869065   0.7017950925176137   0.4633763247   F   F   F
0.5036785404869093   0.7017950925176137   0.4633763247   F   F   F
0.7036785404869050   0.7017950925176137   0.4633763247   F   F   F
0.9036785404869079   0.7017950925176137   0.4633763247   F   F   F
0.1036785404869107   0.9017950925176166   0.4633763247   F   F   F
0.3036785404869065   0.9017950925176166   0.4633763247   F   F   F
0.5036785404869093   0.9017950925176166   0.4633763247   F   F   F
0.7036785404869050   0.9017950925176166   0.4633763247   F   F   F
0.9036785404869079   0.9017950925176166   0.4633763247   F   F   F
0.9697743988912471   0.1691586841657540   0.5369280565   T   T   T
0.1720376955894496   0.1686220350038296   0.5371316623   T   T   T
0.3724118668812092   0.1679951172179979   0.5356007429   T   T   T
0.5688403832164842   0.1676894503705240   0.5354218897   T   T   T
0.7683927012151364   0.1684326249691009   0.5370938248   T   T   T
0.9705271699957414   0.3691058924991711   0.5369015420   T   T   T
0.1708505082124113   0.3691151102966459   0.5359807004   T   T   T
0.3660609934051988   0.3768339551363782   0.5388428076   T   T   T
0.5681508522402966   0.3685631060453137   0.5356914861   T   T   T
0.7680586524547289   0.3689499194464448   0.5370719121   T   T   T
0.9661668084582415   0.5701372934212999   0.5357865872   T   T   T
0.1672753116870956   0.5661531108276311   0.5355193649   T   T   T
0.3748568383550059   0.5653360976625496   0.5353429958   T   T   T
0.5721407143803883   0.5699127136630726   0.5356520115   T   T   T
0.7695858601226762   0.5686512215075468   0.5368529949   T   T   T
0.9702229581143889   0.7670815852414137   0.5373858050   T   T   T
0.1729323298073507   0.7626714703593914   0.5373086807   T   T   T
0.3719543438311901   0.7659255252127494   0.5373842683   T   T   T
0.5703702156875911   0.7693406932189933   0.5372301578   T   T   T
0.7687143199469013   0.7695594840415532   0.5372196023   T   T   T
0.9716332734307392   0.9666648452555721   0.5370926275   T   T   T
0.1715410508202288   0.9655635470366100   0.5373365506   T   T   T
0.3708917477578793   0.9673484440894186   0.5371622145   T   T   T
0.5706469472343231   0.9679473994614051   0.5371185424   T   T   T
0.7706209876901298   0.9678300794907562   0.5372690824   T   T   T
0.0383235839745769   0.0335239478619402   0.6110160473   T   T   T
0.2382414706808578   0.0344073777144252   0.6114160030   T   T   T
0.4351661669819613   0.0409857937989610   0.6107266720   T   T   T
0.6318066213612118   0.0435634886638563   0.6106383033   T   T   T
0.8363092200475734   0.0352660332042904   0.6111901433   T   T   T
0.0376394906083197   0.2357691499490698   0.6108521955   T   T   T
0.2394994823388208   0.2423295972623162   0.6092721507   T   T   T
0.4279795555881334   0.2555750780429968   0.6078296243   T   T   T
0.6258926678337187   0.2443245497815695   0.6090952509   T   T   T
0.8332089840168840   0.2365940390980877   0.6108974919   T   T   T
0.0424255902435599   0.4358649123279011   0.6093676605   T   T   T
0.6270126284105306   0.4353271072757822   0.6092517946   T   T   T
0.8361336195097462   0.4351455387178618   0.6114539706   T   T   T
0.0450944619828750   0.6283236177983743   0.6096020223   T   T   T
0.2502129245802013   0.6110558388451786   0.6064684434   T   T   T
0.4362585639997698   0.6254207457348072   0.6094656326   T   T   T
0.6350638305425369   0.6327768461009793   0.6111714000   T   T   T
0.8389127128052379   0.6336236763257256   0.6110919863   T   T   T
0.0398321704977952   0.8308650637109795   0.6112492704   T   T   T
0.2402341239732814   0.8265038540278929   0.6114811122   T   T   T
0.4373781697804502   0.8343863940865311   0.6120072693   T   T   T
0.6363691663730322   0.8369640605807753   0.6125411662   T   T   T
0.8372706414993827   0.8349316450262498   0.6124401895   T   T   T
0.2259980809971382   0.4374550192612564   0.6001300382   T   T   T
0.4383901340087635   0.4366763921785338   0.6012913215   T   T   T
0.3803551918636540   0.4352360676281645   0.6549655938   T   T   T
0.2926347507139439   0.4339190472929338   0.6618190763   T   T   T
0.4231110098516703   0.4347262660287188   0.6842740770   T   T   T
 
  0.00000000E+00  0.00000000E+00  0.00000000E+00
  0.00000000E+00  0.00000000E+00  0.00000000E+00
  0.00000000E+00  0.00000000E+00  0.00000000E+00
  0.00000000E+00  0.00000000E+00  0.00000000E+00
  0.00000000E+00  0.00000000E+00  0.00000000E+00
  0.00000000E+00  0.00000000E+00  0.00000000E+00
  0.00000000E+00  0.00000000E+00  0.00000000E+00
  0.00000000E+00  0.00000000E+00  0.00000000E+00
  0.00000000E+00  0.00000000E+00  0.00000000E+00
  0.00000000E+00  0.00000000E+00  0.00000000E+00
  0.00000000E+00  0.00000000E+00  0.00000000E+00
  0.00000000E+00  0.00000000E+00  0.00000000E+00
  0.00000000E+00  0.00000000E+00  0.00000000E+00
  0.00000000E+00  0.00000000E+00  0.00000000E+00
  0.00000000E+00  0.00000000E+00  0.00000000E+00
  0.00000000E+00  0.00000000E+00  0.00000000E+00
  0.00000000E+00  0.00000000E+00  0.00000000E+00
  0.00000000E+00  0.00000000E+00  0.00000000E+00
  0.00000000E+00  0.00000000E+00  0.00000000E+00
  0.00000000E+00  0.00000000E+00  0.00000000E+00
  0.00000000E+00  0.00000000E+00  0.00000000E+00
  0.00000000E+00  0.00000000E+00  0.00000000E+00
  0.00000000E+00  0.00000000E+00  0.00000000E+00
  0.00000000E+00  0.00000000E+00  0.00000000E+00
  0.00000000E+00  0.00000000E+00  0.00000000E+00
  0.00000000E+00  0.00000000E+00  0.00000000E+00
  0.00000000E+00  0.00000000E+00  0.00000000E+00
  0.00000000E+00  0.00000000E+00  0.00000000E+00
  0.00000000E+00  0.00000000E+00  0.00000000E+00
  0.00000000E+00  0.00000000E+00  0.00000000E+00
  0.00000000E+00  0.00000000E+00  0.00000000E+00
  0.00000000E+00  0.00000000E+00  0.00000000E+00
  0.00000000E+00  0.00000000E+00  0.00000000E+00
  0.00000000E+00  0.00000000E+00  0.00000000E+00
  0.00000000E+00  0.00000000E+00  0.00000000E+00
  0.00000000E+00  0.00000000E+00  0.00000000E+00
  0.00000000E+00  0.00000000E+00  0.00000000E+00
  0.00000000E+00  0.00000000E+00  0.00000000E+00
  0.00000000E+00  0.00000000E+00  0.00000000E+00
  0.00000000E+00  0.00000000E+00  0.00000000E+00
  0.00000000E+00  0.00000000E+00  0.00000000E+00
  0.00000000E+00  0.00000000E+00  0.00000000E+00
  0.00000000E+00  0.00000000E+00  0.00000000E+00
  0.00000000E+00  0.00000000E+00  0.00000000E+00
  0.00000000E+00  0.00000000E+00  0.00000000E+00
  0.00000000E+00  0.00000000E+00  0.00000000E+00
  0.00000000E+00  0.00000000E+00  0.00000000E+00
  0.00000000E+00  0.00000000E+00  0.00000000E+00
  0.00000000E+00  0.00000000E+00  0.00000000E+00
  0.00000000E+00  0.00000000E+00  0.00000000E+00
  0.00000000E+00  0.00000000E+00  0.00000000E+00
  0.00000000E+00  0.00000000E+00  0.00000000E+00
  0.00000000E+00  0.00000000E+00  0.00000000E+00
  0.00000000E+00  0.00000000E+00  0.00000000E+00
  0.00000000E+00  0.00000000E+00  0.00000000E+00
  0.00000000E+00  0.00000000E+00  0.00000000E+00
  0.00000000E+00  0.00000000E+00  0.00000000E+00
  0.00000000E+00  0.00000000E+00  0.00000000E+00
  0.00000000E+00  0.00000000E+00  0.00000000E+00
  0.00000000E+00  0.00000000E+00  0.00000000E+00
  0.00000000E+00  0.00000000E+00  0.00000000E+00
  0.00000000E+00  0.00000000E+00  0.00000000E+00
  0.00000000E+00  0.00000000E+00  0.00000000E+00
  0.00000000E+00  0.00000000E+00  0.00000000E+00
  0.00000000E+00  0.00000000E+00  0.00000000E+00
  0.00000000E+00  0.00000000E+00  0.00000000E+00
  0.00000000E+00  0.00000000E+00  0.00000000E+00
  0.00000000E+00  0.00000000E+00  0.00000000E+00
  0.00000000E+00  0.00000000E+00  0.00000000E+00
  0.00000000E+00  0.00000000E+00  0.00000000E+00
  0.00000000E+00  0.00000000E+00  0.00000000E+00
  0.00000000E+00  0.00000000E+00  0.00000000E+00
  0.00000000E+00  0.00000000E+00  0.00000000E+00
  0.00000000E+00  0.00000000E+00  0.00000000E+00
  0.00000000E+00  0.00000000E+00  0.00000000E+00
  0.00000000E+00  0.00000000E+00  0.00000000E+00
  0.00000000E+00  0.00000000E+00  0.00000000E+00
  0.00000000E+00  0.00000000E+00  0.00000000E+00
  0.00000000E+00  0.00000000E+00  0.00000000E+00
  0.00000000E+00  0.00000000E+00  0.00000000E+00
  0.00000000E+00  0.00000000E+00  0.00000000E+00
  0.00000000E+00  0.00000000E+00  0.00000000E+00
  0.00000000E+00  0.00000000E+00  0.00000000E+00
  0.00000000E+00  0.00000000E+00  0.00000000E+00
  0.00000000E+00  0.00000000E+00  0.00000000E+00
  0.00000000E+00  0.00000000E+00  0.00000000E+00
  0.00000000E+00  0.00000000E+00  0.00000000E+00
  0.00000000E+00  0.00000000E+00  0.00000000E+00
  0.00000000E+00  0.00000000E+00  0.00000000E+00
  0.00000000E+00  0.00000000E+00  0.00000000E+00
  0.00000000E+00  0.00000000E+00  0.00000000E+00
  0.00000000E+00  0.00000000E+00  0.00000000E+00
  0.00000000E+00  0.00000000E+00  0.00000000E+00
  0.00000000E+00  0.00000000E+00  0.00000000E+00
  0.00000000E+00  0.00000000E+00  0.00000000E+00
  0.00000000E+00  0.00000000E+00  0.00000000E+00
  0.00000000E+00  0.00000000E+00  0.00000000E+00
  0.00000000E+00  0.00000000E+00  0.00000000E+00
  0.00000000E+00  0.00000000E+00  0.00000000E+00
  0.00000000E+00  0.00000000E+00  0.00000000E+00
  0.00000000E+00  0.00000000E+00  0.00000000E+00
  0.00000000E+00  0.00000000E+00  0.00000000E+00
  0.00000000E+00  0.00000000E+00  0.00000000E+00
  0.00000000E+00  0.00000000E+00  0.00000000E+00
  0.00000000E+00  0.00000000E+00  0.00000000E+00
  0.00000000E+00  0.00000000E+00  0.00000000E+00
  0.00000000E+00  0.00000000E+00  0.00000000E+00
  0.00000000E+00  0.00000000E+00  0.00000000E+00
  0.00000000E+00  0.00000000E+00  0.00000000E+00
  0.00000000E+00  0.00000000E+00  0.00000000E+00
  0.00000000E+00  0.00000000E+00  0.00000000E+00
  0.00000000E+00  0.00000000E+00  0.00000000E+00
  0.00000000E+00  0.00000000E+00  0.00000000E+00
  0.00000000E+00  0.00000000E+00  0.00000000E+00
  0.00000000E+00  0.00000000E+00  0.00000000E+00
  0.00000000E+00  0.00000000E+00  0.00000000E+00
  0.00000000E+00  0.00000000E+00  0.00000000E+00
  0.00000000E+00  0.00000000E+00  0.00000000E+00
  0.00000000E+00  0.00000000E+00  0.00000000E+00
  0.00000000E+00  0.00000000E+00  0.00000000E+00
  0.00000000E+00  0.00000000E+00  0.00000000E+00
  0.00000000E+00  0.00000000E+00  0.00000000E+00
  0.00000000E+00  0.00000000E+00  0.00000000E+00
  0.00000000E+00  0.00000000E+00  0.00000000E+00
  0.00000000E+00  0.00000000E+00  0.00000000E+00
  0.00000000E+00  0.00000000E+00  0.00000000E+00
  0.00000000E+00  0.00000000E+00  0.00000000E+00
  0.00000000E+00  0.00000000E+00  0.00000000E+00
