Al  C  O  H                             
   1.00000000000000     
    14.3189123190275875    0.0000000000000000    0.0000000000000000
     7.1594561595137938   12.4005418228398376    0.0000000000000000
   0.0000000000   0.0000000000   32.1274513048
   Al   C    O    H 
   125     1     1     3
Selective dynamics
Direct
0.9333333333333300   0.1333333333333329   0.3112602959   F   F   F
0.1333333333333329   0.1333333333333329   0.3112602959   F   F   F
0.3333333333333357   0.1333333333333329   0.3112602959   F   F   F
0.5333333333333314   0.1333333333333329   0.3112602959   F   F   F
0.7333333333333343   0.1333333333333329   0.3112602959   F   F   F
0.9333333333333300   0.3333333333333357   0.3112602959   F   F   F
0.1333333333333329   0.3333333333333357   0.3112602959   F   F   F
0.3333333333333357   0.3333333333333357   0.3112602959   F   F   F
0.5333333333333314   0.3333333333333357   0.3112602959   F   F   F
0.7333333333333343   0.3333333333333357   0.3112602959   F   F   F
0.9333333333333300   0.5333333333333314   0.3112602959   F   F   F
0.1333333333333329   0.5333333333333314   0.3112602959   F   F   F
0.3333333333333357   0.5333333333333314   0.3112602959   F   F   F
0.5333333333333314   0.5333333333333314   0.3112602959   F   F   F
0.7333333333333343   0.5333333333333314   0.3112602959   F   F   F
0.9333333333333300   0.7333333333333343   0.3112602959   F   F   F
0.1333333333333329   0.7333333333333343   0.3112602959   F   F   F
0.3333333333333357   0.7333333333333343   0.3112602959   F   F   F
0.5333333333333314   0.7333333333333343   0.3112602959   F   F   F
0.7333333333333343   0.7333333333333343   0.3112602959   F   F   F
0.9333333333333300   0.9333333333333371   0.3112602959   F   F   F
0.1333333333333329   0.9333333333333371   0.3112602959   F   F   F
0.3333333333333357   0.9333333333333371   0.3112602959   F   F   F
0.5333333333333314   0.9333333333333371   0.3112602959   F   F   F
0.7333333333333343   0.9333333333333371   0.3112602959   F   F   F
0.0000000000000000   0.0000000000000000   0.3840413133   F   F   F
0.2000000000000028   0.0000000000000000   0.3840413133   F   F   F
0.3999999999999986   0.0000000000000000   0.3840413133   F   F   F
0.6000000000000014   0.0000000000000000   0.3840413133   F   F   F
0.7999999999999972   0.0000000000000000   0.3840413133   F   F   F
0.0000000000000000   0.2000000000000028   0.3840413133   F   F   F
0.2000000000000028   0.2000000000000028   0.3840413133   F   F   F
0.3999999999999986   0.2000000000000028   0.3840413133   F   F   F
0.6000000000000014   0.2000000000000028   0.3840413133   F   F   F
0.7999999999999972   0.2000000000000028   0.3840413133   F   F   F
0.0000000000000000   0.3999999999999986   0.3840413133   F   F   F
0.2000000000000028   0.3999999999999986   0.3840413133   F   F   F
0.3999999999999986   0.3999999999999986   0.3840413133   F   F   F
0.6000000000000014   0.3999999999999986   0.3840413133   F   F   F
0.7999999999999972   0.3999999999999986   0.3840413133   F   F   F
0.0000000000000000   0.6000000000000014   0.3840413133   F   F   F
0.2000000000000028   0.6000000000000014   0.3840413133   F   F   F
0.3999999999999986   0.6000000000000014   0.3840413133   F   F   F
0.6000000000000014   0.6000000000000014   0.3840413133   F   F   F
0.7999999999999972   0.6000000000000014   0.3840413133   F   F   F
0.0000000000000000   0.7999999999999972   0.3840413133   F   F   F
0.2000000000000028   0.7999999999999972   0.3840413133   F   F   F
0.3999999999999986   0.7999999999999972   0.3840413133   F   F   F
0.6000000000000014   0.7999999999999972   0.3840413133   F   F   F
0.7999999999999972   0.7999999999999972   0.3840413133   F   F   F
0.0666666666666700   0.0666666666666700   0.4568223306   F   F   F
0.2666666666666657   0.0666666666666700   0.4568223306   F   F   F
0.4666666666666686   0.0666666666666700   0.4568223306   F   F   F
0.6666666666666643   0.0666666666666700   0.4568223306   F   F   F
0.8666666666666671   0.0666666666666700   0.4568223306   F   F   F
0.0666666666666700   0.2666666666666657   0.4568223306   F   F   F
0.2666666666666657   0.2666666666666657   0.4568223306   F   F   F
0.4666666666666686   0.2666666666666657   0.4568223306   F   F   F
0.6666666666666643   0.2666666666666657   0.4568223306   F   F   F
0.8666666666666671   0.2666666666666657   0.4568223306   F   F   F
0.0666666666666700   0.4666666666666686   0.4568223306   F   F   F
0.2666666666666657   0.4666666666666686   0.4568223306   F   F   F
0.4666666666666686   0.4666666666666686   0.4568223306   F   F   F
0.6666666666666643   0.4666666666666686   0.4568223306   F   F   F
0.8666666666666671   0.4666666666666686   0.4568223306   F   F   F
0.0666666666666700   0.6666666666666643   0.4568223306   F   F   F
0.2666666666666657   0.6666666666666643   0.4568223306   F   F   F
0.4666666666666686   0.6666666666666643   0.4568223306   F   F   F
0.6666666666666643   0.6666666666666643   0.4568223306   F   F   F
0.8666666666666671   0.6666666666666643   0.4568223306   F   F   F
0.0666666666666700   0.8666666666666671   0.4568223306   F   F   F
0.2666666666666657   0.8666666666666671   0.4568223306   F   F   F
0.4666666666666686   0.8666666666666671   0.4568223306   F   F   F
0.6666666666666643   0.8666666666666671   0.4568223306   F   F   F
0.8666666666666671   0.8666666666666671   0.4568223306   F   F   F
0.9336899357040561   0.1333338911202582   0.5296669380   T   T   T
0.1335269405089818   0.1333327089486150   0.5295497860   T   T   T
0.3333971060418504   0.1327320923267278   0.5290055717   T   T   T
0.5343319374866300   0.1321232537625489   0.5287858143   T   T   T
0.7334980340664633   0.1333300191300785   0.5294436469   T   T   T
0.9342851438617126   0.3330671312396796   0.5295889814   T   T   T
0.1344336775355924   0.3333218183423322   0.5298041038   T   T   T
0.3326083071500204   0.3361696418463043   0.5325305237   T   T   T
0.5323730577914206   0.3335574833974372   0.5299359978   T   T   T
0.7332751249811444   0.3328581808207683   0.5296029536   T   T   T
0.9335571053807256   0.5328650362366684   0.5296598125   T   T   T
0.1328343983735766   0.5327180710229237   0.5291235856   T   T   T
0.3347409120467814   0.5322167099175972   0.5296335224   T   T   T
0.5339646376950975   0.5329723199858400   0.5297037709   T   T   T
0.7338061942606868   0.5324889242125881   0.5295507341   T   T   T
0.9334816574391217   0.7333346805513250   0.5292730490   T   T   T
0.1329495597367812   0.7346475251042912   0.5288466619   T   T   T
0.3332390952356556   0.7333180959954367   0.5293785984   T   T   T
0.5335503648806109   0.7326509154282849   0.5294561710   T   T   T
0.7338111246788583   0.7325791994923503   0.5294744796   T   T   T
0.9331728268203281   0.9338182656491429   0.5294811189   T   T   T
0.1332071206293458   0.9340361898191353   0.5295367519   T   T   T
0.3333818395150601   0.9331389201110618   0.5294140776   T   T   T
0.5339133448957348   0.9322160991471431   0.5292888839   T   T   T
0.7337728993900843   0.9329434863080416   0.5293315278   T   T   T
-0.0002106040096909   0.0009068199791229   0.6027418635   T   T   T
0.2005643704905064   0.0001336616634153   0.6027930910   T   T   T
0.4012141473786473   0.9970826965657782   0.6025508163   T   T   T
0.6022309262514046   0.9968673308225053   0.6024241192   T   T   T
0.8001176232660761   -0.0003158913121562   0.6027907986   T   T   T
0.0004901986267160   0.2002120321894376   0.6027720939   T   T   T
0.2014410247316303   0.1984591869570547   0.6024627605   T   T   T
0.4043761818699477   0.1917115157550907   0.6002186451   T   T   T
0.6018741319711075   0.1972865142089911   0.6018371371   T   T   T
0.8004588078567907   0.1999283796006142   0.6027063242   T   T   T
0.0014460517807031   0.3999446890083429   0.6032292291   T   T   T
0.1975071296148333   0.4003626377785193   0.6069662165   T   T   T
0.4037797500655254   0.4011903685936882   0.6094725840   T   T   T
0.6006819920451772   0.3999912016390586   0.6030941225   T   T   T
0.8009506119211707   0.3994983982608468   0.6031109562   T   T   T
-0.0005929274482540   0.6009342130067036   0.6021911716   T   T   T
0.1967788920356707   0.6059409439193398   0.5994694210   T   T   T
0.4005519482591382   0.6018256845285618   0.6021369353   T   T   T
0.6010405059750503   0.5993550406281656   0.6027682841   T   T   T
0.8006399985378843   0.5992190172848127   0.6027056617   T   T   T
0.9988940661612258   0.8017478796597205   0.6026073273   T   T   T
0.1995169426907571   0.8020287095539869   0.6025810013   T   T   T
0.4002956323171943   0.7995236489889604   0.6029261375   T   T   T
0.6010695824820277   0.7982395625136824   0.6026600391   T   T   T
0.8007995015047137   0.7991171075680237   0.6026782024   T   T   T
0.3511657965511427   0.3990216776820567   0.6694862979   T   T   T
0.2430986275311948   0.4044531595735973   0.6658106314   T   T   T
0.3370263538758366   0.4679070490649805   0.6887397041   T   T   T
0.2320080101273957   0.3652180249661574   0.6880807758   T   T   T
0.4049848205726810   0.3241741803263967   0.6859601255   T   T   T
 
  0.00000000E+00  0.00000000E+00  0.00000000E+00
  0.00000000E+00  0.00000000E+00  0.00000000E+00
  0.00000000E+00  0.00000000E+00  0.00000000E+00
  0.00000000E+00  0.00000000E+00  0.00000000E+00
  0.00000000E+00  0.00000000E+00  0.00000000E+00
  0.00000000E+00  0.00000000E+00  0.00000000E+00
  0.00000000E+00  0.00000000E+00  0.00000000E+00
  0.00000000E+00  0.00000000E+00  0.00000000E+00
  0.00000000E+00  0.00000000E+00  0.00000000E+00
  0.00000000E+00  0.00000000E+00  0.00000000E+00
  0.00000000E+00  0.00000000E+00  0.00000000E+00
  0.00000000E+00  0.00000000E+00  0.00000000E+00
  0.00000000E+00  0.00000000E+00  0.00000000E+00
  0.00000000E+00  0.00000000E+00  0.00000000E+00
  0.00000000E+00  0.00000000E+00  0.00000000E+00
  0.00000000E+00  0.00000000E+00  0.00000000E+00
  0.00000000E+00  0.00000000E+00  0.00000000E+00
  0.00000000E+00  0.00000000E+00  0.00000000E+00
  0.00000000E+00  0.00000000E+00  0.00000000E+00
  0.00000000E+00  0.00000000E+00  0.00000000E+00
  0.00000000E+00  0.00000000E+00  0.00000000E+00
  0.00000000E+00  0.00000000E+00  0.00000000E+00
  0.00000000E+00  0.00000000E+00  0.00000000E+00
  0.00000000E+00  0.00000000E+00  0.00000000E+00
  0.00000000E+00  0.00000000E+00  0.00000000E+00
  0.00000000E+00  0.00000000E+00  0.00000000E+00
  0.00000000E+00  0.00000000E+00  0.00000000E+00
  0.00000000E+00  0.00000000E+00  0.00000000E+00
  0.00000000E+00  0.00000000E+00  0.00000000E+00
  0.00000000E+00  0.00000000E+00  0.00000000E+00
  0.00000000E+00  0.00000000E+00  0.00000000E+00
  0.00000000E+00  0.00000000E+00  0.00000000E+00
  0.00000000E+00  0.00000000E+00  0.00000000E+00
  0.00000000E+00  0.00000000E+00  0.00000000E+00
  0.00000000E+00  0.00000000E+00  0.00000000E+00
  0.00000000E+00  0.00000000E+00  0.00000000E+00
  0.00000000E+00  0.00000000E+00  0.00000000E+00
  0.00000000E+00  0.00000000E+00  0.00000000E+00
  0.00000000E+00  0.00000000E+00  0.00000000E+00
  0.00000000E+00  0.00000000E+00  0.00000000E+00
  0.00000000E+00  0.00000000E+00  0.00000000E+00
  0.00000000E+00  0.00000000E+00  0.00000000E+00
  0.00000000E+00  0.00000000E+00  0.00000000E+00
  0.00000000E+00  0.00000000E+00  0.00000000E+00
  0.00000000E+00  0.00000000E+00  0.00000000E+00
  0.00000000E+00  0.00000000E+00  0.00000000E+00
  0.00000000E+00  0.00000000E+00  0.00000000E+00
  0.00000000E+00  0.00000000E+00  0.00000000E+00
  0.00000000E+00  0.00000000E+00  0.00000000E+00
  0.00000000E+00  0.00000000E+00  0.00000000E+00
  0.00000000E+00  0.00000000E+00  0.00000000E+00
  0.00000000E+00  0.00000000E+00  0.00000000E+00
  0.00000000E+00  0.00000000E+00  0.00000000E+00
  0.00000000E+00  0.00000000E+00  0.00000000E+00
  0.00000000E+00  0.00000000E+00  0.00000000E+00
  0.00000000E+00  0.00000000E+00  0.00000000E+00
  0.00000000E+00  0.00000000E+00  0.00000000E+00
  0.00000000E+00  0.00000000E+00  0.00000000E+00
  0.00000000E+00  0.00000000E+00  0.00000000E+00
  0.00000000E+00  0.00000000E+00  0.00000000E+00
  0.00000000E+00  0.00000000E+00  0.00000000E+00
  0.00000000E+00  0.00000000E+00  0.00000000E+00
  0.00000000E+00  0.00000000E+00  0.00000000E+00
  0.00000000E+00  0.00000000E+00  0.00000000E+00
  0.00000000E+00  0.00000000E+00  0.00000000E+00
  0.00000000E+00  0.00000000E+00  0.00000000E+00
  0.00000000E+00  0.00000000E+00  0.00000000E+00
  0.00000000E+00  0.00000000E+00  0.00000000E+00
  0.00000000E+00  0.00000000E+00  0.00000000E+00
  0.00000000E+00  0.00000000E+00  0.00000000E+00
  0.00000000E+00  0.00000000E+00  0.00000000E+00
  0.00000000E+00  0.00000000E+00  0.00000000E+00
  0.00000000E+00  0.00000000E+00  0.00000000E+00
  0.00000000E+00  0.00000000E+00  0.00000000E+00
  0.00000000E+00  0.00000000E+00  0.00000000E+00
  0.00000000E+00  0.00000000E+00  0.00000000E+00
  0.00000000E+00  0.00000000E+00  0.00000000E+00
  0.00000000E+00  0.00000000E+00  0.00000000E+00
  0.00000000E+00  0.00000000E+00  0.00000000E+00
  0.00000000E+00  0.00000000E+00  0.00000000E+00
  0.00000000E+00  0.00000000E+00  0.00000000E+00
  0.00000000E+00  0.00000000E+00  0.00000000E+00
  0.00000000E+00  0.00000000E+00  0.00000000E+00
  0.00000000E+00  0.00000000E+00  0.00000000E+00
  0.00000000E+00  0.00000000E+00  0.00000000E+00
  0.00000000E+00  0.00000000E+00  0.00000000E+00
  0.00000000E+00  0.00000000E+00  0.00000000E+00
  0.00000000E+00  0.00000000E+00  0.00000000E+00
  0.00000000E+00  0.00000000E+00  0.00000000E+00
  0.00000000E+00  0.00000000E+00  0.00000000E+00
  0.00000000E+00  0.00000000E+00  0.00000000E+00
  0.00000000E+00  0.00000000E+00  0.00000000E+00
  0.00000000E+00  0.00000000E+00  0.00000000E+00
  0.00000000E+00  0.00000000E+00  0.00000000E+00
  0.00000000E+00  0.00000000E+00  0.00000000E+00
  0.00000000E+00  0.00000000E+00  0.00000000E+00
  0.00000000E+00  0.00000000E+00  0.00000000E+00
  0.00000000E+00  0.00000000E+00  0.00000000E+00
  0.00000000E+00  0.00000000E+00  0.00000000E+00
  0.00000000E+00  0.00000000E+00  0.00000000E+00
  0.00000000E+00  0.00000000E+00  0.00000000E+00
  0.00000000E+00  0.00000000E+00  0.00000000E+00
  0.00000000E+00  0.00000000E+00  0.00000000E+00
  0.00000000E+00  0.00000000E+00  0.00000000E+00
  0.00000000E+00  0.00000000E+00  0.00000000E+00
  0.00000000E+00  0.00000000E+00  0.00000000E+00
  0.00000000E+00  0.00000000E+00  0.00000000E+00
  0.00000000E+00  0.00000000E+00  0.00000000E+00
  0.00000000E+00  0.00000000E+00  0.00000000E+00
  0.00000000E+00  0.00000000E+00  0.00000000E+00
  0.00000000E+00  0.00000000E+00  0.00000000E+00
  0.00000000E+00  0.00000000E+00  0.00000000E+00
  0.00000000E+00  0.00000000E+00  0.00000000E+00
  0.00000000E+00  0.00000000E+00  0.00000000E+00
  0.00000000E+00  0.00000000E+00  0.00000000E+00
  0.00000000E+00  0.00000000E+00  0.00000000E+00
  0.00000000E+00  0.00000000E+00  0.00000000E+00
  0.00000000E+00  0.00000000E+00  0.00000000E+00
  0.00000000E+00  0.00000000E+00  0.00000000E+00
  0.00000000E+00  0.00000000E+00  0.00000000E+00
  0.00000000E+00  0.00000000E+00  0.00000000E+00
  0.00000000E+00  0.00000000E+00  0.00000000E+00
  0.00000000E+00  0.00000000E+00  0.00000000E+00
  0.00000000E+00  0.00000000E+00  0.00000000E+00
  0.00000000E+00  0.00000000E+00  0.00000000E+00
  0.00000000E+00  0.00000000E+00  0.00000000E+00
  0.00000000E+00  0.00000000E+00  0.00000000E+00
  0.00000000E+00  0.00000000E+00  0.00000000E+00
  0.00000000E+00  0.00000000E+00  0.00000000E+00
  0.00000000E+00  0.00000000E+00  0.00000000E+00
