Al Fe Al  C  O  H                       
   1.00000000000000     
    14.3189123190275875    0.0000000000000000    0.0000000000000000
     7.1594561595137938   12.4005418228398376    0.0000000000000000
   0.0000000000   0.0000000000   32.6417972079
   Al   Fe   Al   C    O    H 
   112     1    12     1     1     1
Selective dynamics
Direct
0.9333333333333300   0.1333333333333329   0.3063556806   F   F   F
0.1333333333333329   0.1333333333333329   0.3063556806   F   F   F
0.3333333333333357   0.1333333333333329   0.3063556806   F   F   F
0.5333333333333314   0.1333333333333329   0.3063556806   F   F   F
0.7333333333333343   0.1333333333333329   0.3063556806   F   F   F
0.9333333333333300   0.3333333333333357   0.3063556806   F   F   F
0.1333333333333329   0.3333333333333357   0.3063556806   F   F   F
0.3333333333333357   0.3333333333333357   0.3063556806   F   F   F
0.5333333333333314   0.3333333333333357   0.3063556806   F   F   F
0.7333333333333343   0.3333333333333357   0.3063556806   F   F   F
0.9333333333333300   0.5333333333333314   0.3063556806   F   F   F
0.1333333333333329   0.5333333333333314   0.3063556806   F   F   F
0.3333333333333357   0.5333333333333314   0.3063556806   F   F   F
0.5333333333333314   0.5333333333333314   0.3063556806   F   F   F
0.7333333333333343   0.5333333333333314   0.3063556806   F   F   F
0.9333333333333300   0.7333333333333343   0.3063556806   F   F   F
0.1333333333333329   0.7333333333333343   0.3063556806   F   F   F
0.3333333333333357   0.7333333333333343   0.3063556806   F   F   F
0.5333333333333314   0.7333333333333343   0.3063556806   F   F   F
0.7333333333333343   0.7333333333333343   0.3063556806   F   F   F
0.9333333333333300   0.9333333333333371   0.3063556806   F   F   F
0.1333333333333329   0.9333333333333371   0.3063556806   F   F   F
0.3333333333333357   0.9333333333333371   0.3063556806   F   F   F
0.5333333333333314   0.9333333333333371   0.3063556806   F   F   F
0.7333333333333343   0.9333333333333371   0.3063556806   F   F   F
0.0000000000000000   0.0000000000000000   0.3779898672   F   F   F
0.2000000000000028   0.0000000000000000   0.3779898672   F   F   F
0.3999999999999986   0.0000000000000000   0.3779898672   F   F   F
0.6000000000000014   0.0000000000000000   0.3779898672   F   F   F
0.7999999999999972   0.0000000000000000   0.3779898672   F   F   F
0.0000000000000000   0.2000000000000028   0.3779898672   F   F   F
0.2000000000000028   0.2000000000000028   0.3779898672   F   F   F
0.3999999999999986   0.2000000000000028   0.3779898672   F   F   F
0.6000000000000014   0.2000000000000028   0.3779898672   F   F   F
0.7999999999999972   0.2000000000000028   0.3779898672   F   F   F
0.0000000000000000   0.3999999999999986   0.3779898672   F   F   F
0.2000000000000028   0.3999999999999986   0.3779898672   F   F   F
0.3999999999999986   0.3999999999999986   0.3779898672   F   F   F
0.6000000000000014   0.3999999999999986   0.3779898672   F   F   F
0.7999999999999972   0.3999999999999986   0.3779898672   F   F   F
0.0000000000000000   0.6000000000000014   0.3779898672   F   F   F
0.2000000000000028   0.6000000000000014   0.3779898672   F   F   F
0.3999999999999986   0.6000000000000014   0.3779898672   F   F   F
0.6000000000000014   0.6000000000000014   0.3779898672   F   F   F
0.7999999999999972   0.6000000000000014   0.3779898672   F   F   F
0.0000000000000000   0.7999999999999972   0.3779898672   F   F   F
0.2000000000000028   0.7999999999999972   0.3779898672   F   F   F
0.3999999999999986   0.7999999999999972   0.3779898672   F   F   F
0.6000000000000014   0.7999999999999972   0.3779898672   F   F   F
0.7999999999999972   0.7999999999999972   0.3779898672   F   F   F
0.0666666666666700   0.0666666666666700   0.4496240537   F   F   F
0.2666666666666657   0.0666666666666700   0.4496240537   F   F   F
0.4666666666666686   0.0666666666666700   0.4496240537   F   F   F
0.6666666666666643   0.0666666666666700   0.4496240537   F   F   F
0.8666666666666671   0.0666666666666700   0.4496240537   F   F   F
0.0666666666666700   0.2666666666666657   0.4496240537   F   F   F
0.2666666666666657   0.2666666666666657   0.4496240537   F   F   F
0.4666666666666686   0.2666666666666657   0.4496240537   F   F   F
0.6666666666666643   0.2666666666666657   0.4496240537   F   F   F
0.8666666666666671   0.2666666666666657   0.4496240537   F   F   F
0.0666666666666700   0.4666666666666686   0.4496240537   F   F   F
0.2666666666666657   0.4666666666666686   0.4496240537   F   F   F
0.4666666666666686   0.4666666666666686   0.4496240537   F   F   F
0.6666666666666643   0.4666666666666686   0.4496240537   F   F   F
0.8666666666666671   0.4666666666666686   0.4496240537   F   F   F
0.0666666666666700   0.6666666666666643   0.4496240537   F   F   F
0.2666666666666657   0.6666666666666643   0.4496240537   F   F   F
0.4666666666666686   0.6666666666666643   0.4496240537   F   F   F
0.6666666666666643   0.6666666666666643   0.4496240537   F   F   F
0.8666666666666671   0.6666666666666643   0.4496240537   F   F   F
0.0666666666666700   0.8666666666666671   0.4496240537   F   F   F
0.2666666666666657   0.8666666666666671   0.4496240537   F   F   F
0.4666666666666686   0.8666666666666671   0.4496240537   F   F   F
0.6666666666666643   0.8666666666666671   0.4496240537   F   F   F
0.8666666666666671   0.8666666666666671   0.4496240537   F   F   F
0.9321937597797070   0.1339783597932504   0.5212027919   T   T   T
0.1339888608848722   0.1340181225656036   0.5212437128   T   T   T
0.3339137444572068   0.1344901556928101   0.5211815547   T   T   T
0.5343658152241348   0.1311634551799294   0.5196850975   T   T   T
0.7317090418396083   0.1343262169735370   0.5210860425   T   T   T
0.9333386242028490   0.3333309977171321   0.5210433875   T   T   T
0.1345562941708266   0.3339353560963695   0.5212015026   T   T   T
0.3352844437223151   0.3351816674911448   0.5212458590   T   T   T
0.5296591604211426   0.3349855936113859   0.5210411314   T   T   T
0.7315162672670383   0.3337526431538173   0.5210919690   T   T   T
0.9328714672598728   0.5332300820608602   0.5215656471   T   T   T
0.1313716594567261   0.5342602549324008   0.5196599712   T   T   T
0.3351676507978525   0.5296291572799587   0.5209831030   T   T   T
0.5342307275334921   0.5341739138139595   0.5195399606   T   T   T
0.7335295197688361   0.5329704041620273   0.5215265776   T   T   T
0.9330890719075217   0.7336511209730163   0.5215510187   T   T   T
0.1345422376327267   0.7315852927317268   0.5211274991   T   T   T
0.3339041733875308   0.7315171084521503   0.5210959998   T   T   T
0.5331441839720626   0.7334248441567545   0.5215600572   T   T   T
0.7332400727287063   0.7331292669678303   0.5221886856   T   T   T
0.9335624701693701   0.9333116469421612   0.5210118765   T   T   T
0.1341555616023885   0.9321373459539058   0.5211783332   T   T   T
0.3334610755990295   0.9333330195792993   0.5210493465   T   T   T
0.5333581669041469   0.9327601283608555   0.5215888279   T   T   T
0.7339129840876011   0.9327854167736408   0.5215734727   T   T   T
0.0000313906742641   0.9998474795369729   0.5929715807   T   T   T
0.2001385594014275   -0.0000368046455157   0.5929628948   T   T   T
0.4001576895735470   0.0002931129512745   0.5931454015   T   T   T
0.5977562606575593   0.0044403215149772   0.5932119133   T   T   T
0.7996766701126732   0.0001863150191604   0.5930937383   T   T   T
0.9998928122781574   0.2001049857301009   0.5929695392   T   T   T
0.2022772941570563   0.2022789518045071   0.5934466131   T   T   T
0.4004004271471011   0.2061913713044059   0.5911495715   T   T   T
0.5935489452906586   0.2059260210126544   0.5909835680   T   T   T
0.7956730522870282   0.2018591722224479   0.5933072976   T   T   T
0.0003969090773340   0.3999996243042893   0.5931374979   T   T   T
0.2065683880055338   0.4003458257848248   0.5911522151   T   T   T
0.4011867114575320   0.4012214048450246   0.5894399204   T   T   T
0.5936397650668973   0.3997868245474619   0.5909051570   T   T   T
0.7992611627187844   0.3997790097351868   0.5930948224   T   T   T
0.0047996328799946   0.5973860546405967   0.5931905020   T   T   T
0.2063708052047717   0.5932961068865740   0.5910318601   T   T   T
0.3999351449326524   0.5936538993914693   0.5908982167   T   T   T
0.5972195322548758   0.5969272574689176   0.5932186579   T   T   T
0.7997961551755167   0.5995216334226221   0.5944441244   T   T   T
0.0007427253940847   0.7991816525975831   0.5930989356   T   T   T
0.2021639306258239   0.7956473931175603   0.5932741599   T   T   T
0.4000671425766035   0.7991954666077939   0.5930869990   T   T   T
0.5998256150662193   0.7995092532687812   0.5945610442   T   T   T
0.8001865036885366   0.7996828877205105   0.5945056561   T   T   T
0.4041574609795386   0.4019501078871585   0.6400865995   T   T   T
0.4090529129114043   0.4054483091648692   0.6799305524   T   T   T
0.3796370451107565   0.3652129151366676   0.6936443194   T   T   T
 
  0.00000000E+00  0.00000000E+00  0.00000000E+00
  0.00000000E+00  0.00000000E+00  0.00000000E+00
  0.00000000E+00  0.00000000E+00  0.00000000E+00
  0.00000000E+00  0.00000000E+00  0.00000000E+00
  0.00000000E+00  0.00000000E+00  0.00000000E+00
  0.00000000E+00  0.00000000E+00  0.00000000E+00
  0.00000000E+00  0.00000000E+00  0.00000000E+00
  0.00000000E+00  0.00000000E+00  0.00000000E+00
  0.00000000E+00  0.00000000E+00  0.00000000E+00
  0.00000000E+00  0.00000000E+00  0.00000000E+00
  0.00000000E+00  0.00000000E+00  0.00000000E+00
  0.00000000E+00  0.00000000E+00  0.00000000E+00
  0.00000000E+00  0.00000000E+00  0.00000000E+00
  0.00000000E+00  0.00000000E+00  0.00000000E+00
  0.00000000E+00  0.00000000E+00  0.00000000E+00
  0.00000000E+00  0.00000000E+00  0.00000000E+00
  0.00000000E+00  0.00000000E+00  0.00000000E+00
  0.00000000E+00  0.00000000E+00  0.00000000E+00
  0.00000000E+00  0.00000000E+00  0.00000000E+00
  0.00000000E+00  0.00000000E+00  0.00000000E+00
  0.00000000E+00  0.00000000E+00  0.00000000E+00
  0.00000000E+00  0.00000000E+00  0.00000000E+00
  0.00000000E+00  0.00000000E+00  0.00000000E+00
  0.00000000E+00  0.00000000E+00  0.00000000E+00
  0.00000000E+00  0.00000000E+00  0.00000000E+00
  0.00000000E+00  0.00000000E+00  0.00000000E+00
  0.00000000E+00  0.00000000E+00  0.00000000E+00
  0.00000000E+00  0.00000000E+00  0.00000000E+00
  0.00000000E+00  0.00000000E+00  0.00000000E+00
  0.00000000E+00  0.00000000E+00  0.00000000E+00
  0.00000000E+00  0.00000000E+00  0.00000000E+00
  0.00000000E+00  0.00000000E+00  0.00000000E+00
  0.00000000E+00  0.00000000E+00  0.00000000E+00
  0.00000000E+00  0.00000000E+00  0.00000000E+00
  0.00000000E+00  0.00000000E+00  0.00000000E+00
  0.00000000E+00  0.00000000E+00  0.00000000E+00
  0.00000000E+00  0.00000000E+00  0.00000000E+00
  0.00000000E+00  0.00000000E+00  0.00000000E+00
  0.00000000E+00  0.00000000E+00  0.00000000E+00
  0.00000000E+00  0.00000000E+00  0.00000000E+00
  0.00000000E+00  0.00000000E+00  0.00000000E+00
  0.00000000E+00  0.00000000E+00  0.00000000E+00
  0.00000000E+00  0.00000000E+00  0.00000000E+00
  0.00000000E+00  0.00000000E+00  0.00000000E+00
  0.00000000E+00  0.00000000E+00  0.00000000E+00
  0.00000000E+00  0.00000000E+00  0.00000000E+00
  0.00000000E+00  0.00000000E+00  0.00000000E+00
  0.00000000E+00  0.00000000E+00  0.00000000E+00
  0.00000000E+00  0.00000000E+00  0.00000000E+00
  0.00000000E+00  0.00000000E+00  0.00000000E+00
  0.00000000E+00  0.00000000E+00  0.00000000E+00
  0.00000000E+00  0.00000000E+00  0.00000000E+00
  0.00000000E+00  0.00000000E+00  0.00000000E+00
  0.00000000E+00  0.00000000E+00  0.00000000E+00
  0.00000000E+00  0.00000000E+00  0.00000000E+00
  0.00000000E+00  0.00000000E+00  0.00000000E+00
  0.00000000E+00  0.00000000E+00  0.00000000E+00
  0.00000000E+00  0.00000000E+00  0.00000000E+00
  0.00000000E+00  0.00000000E+00  0.00000000E+00
  0.00000000E+00  0.00000000E+00  0.00000000E+00
  0.00000000E+00  0.00000000E+00  0.00000000E+00
  0.00000000E+00  0.00000000E+00  0.00000000E+00
  0.00000000E+00  0.00000000E+00  0.00000000E+00
  0.00000000E+00  0.00000000E+00  0.00000000E+00
  0.00000000E+00  0.00000000E+00  0.00000000E+00
  0.00000000E+00  0.00000000E+00  0.00000000E+00
  0.00000000E+00  0.00000000E+00  0.00000000E+00
  0.00000000E+00  0.00000000E+00  0.00000000E+00
  0.00000000E+00  0.00000000E+00  0.00000000E+00
  0.00000000E+00  0.00000000E+00  0.00000000E+00
  0.00000000E+00  0.00000000E+00  0.00000000E+00
  0.00000000E+00  0.00000000E+00  0.00000000E+00
  0.00000000E+00  0.00000000E+00  0.00000000E+00
  0.00000000E+00  0.00000000E+00  0.00000000E+00
  0.00000000E+00  0.00000000E+00  0.00000000E+00
  0.00000000E+00  0.00000000E+00  0.00000000E+00
  0.00000000E+00  0.00000000E+00  0.00000000E+00
  0.00000000E+00  0.00000000E+00  0.00000000E+00
  0.00000000E+00  0.00000000E+00  0.00000000E+00
  0.00000000E+00  0.00000000E+00  0.00000000E+00
  0.00000000E+00  0.00000000E+00  0.00000000E+00
  0.00000000E+00  0.00000000E+00  0.00000000E+00
  0.00000000E+00  0.00000000E+00  0.00000000E+00
  0.00000000E+00  0.00000000E+00  0.00000000E+00
  0.00000000E+00  0.00000000E+00  0.00000000E+00
  0.00000000E+00  0.00000000E+00  0.00000000E+00
  0.00000000E+00  0.00000000E+00  0.00000000E+00
  0.00000000E+00  0.00000000E+00  0.00000000E+00
  0.00000000E+00  0.00000000E+00  0.00000000E+00
  0.00000000E+00  0.00000000E+00  0.00000000E+00
  0.00000000E+00  0.00000000E+00  0.00000000E+00
  0.00000000E+00  0.00000000E+00  0.00000000E+00
  0.00000000E+00  0.00000000E+00  0.00000000E+00
  0.00000000E+00  0.00000000E+00  0.00000000E+00
  0.00000000E+00  0.00000000E+00  0.00000000E+00
  0.00000000E+00  0.00000000E+00  0.00000000E+00
  0.00000000E+00  0.00000000E+00  0.00000000E+00
  0.00000000E+00  0.00000000E+00  0.00000000E+00
  0.00000000E+00  0.00000000E+00  0.00000000E+00
  0.00000000E+00  0.00000000E+00  0.00000000E+00
  0.00000000E+00  0.00000000E+00  0.00000000E+00
  0.00000000E+00  0.00000000E+00  0.00000000E+00
  0.00000000E+00  0.00000000E+00  0.00000000E+00
  0.00000000E+00  0.00000000E+00  0.00000000E+00
  0.00000000E+00  0.00000000E+00  0.00000000E+00
  0.00000000E+00  0.00000000E+00  0.00000000E+00
  0.00000000E+00  0.00000000E+00  0.00000000E+00
  0.00000000E+00  0.00000000E+00  0.00000000E+00
  0.00000000E+00  0.00000000E+00  0.00000000E+00
  0.00000000E+00  0.00000000E+00  0.00000000E+00
  0.00000000E+00  0.00000000E+00  0.00000000E+00
  0.00000000E+00  0.00000000E+00  0.00000000E+00
  0.00000000E+00  0.00000000E+00  0.00000000E+00
  0.00000000E+00  0.00000000E+00  0.00000000E+00
  0.00000000E+00  0.00000000E+00  0.00000000E+00
  0.00000000E+00  0.00000000E+00  0.00000000E+00
  0.00000000E+00  0.00000000E+00  0.00000000E+00
  0.00000000E+00  0.00000000E+00  0.00000000E+00
  0.00000000E+00  0.00000000E+00  0.00000000E+00
  0.00000000E+00  0.00000000E+00  0.00000000E+00
  0.00000000E+00  0.00000000E+00  0.00000000E+00
  0.00000000E+00  0.00000000E+00  0.00000000E+00
  0.00000000E+00  0.00000000E+00  0.00000000E+00
  0.00000000E+00  0.00000000E+00  0.00000000E+00
  0.00000000E+00  0.00000000E+00  0.00000000E+00
  0.00000000E+00  0.00000000E+00  0.00000000E+00
  0.00000000E+00  0.00000000E+00  0.00000000E+00
  0.00000000E+00  0.00000000E+00  0.00000000E+00
